 $CONTRL 
     SCFTYP=ROHF 
     MULT=1 
     ICHARG=0 
     RUNTYP=ENERGY
     MAXIT=150
     ECP=READ
     ISPHER=1
 $END

 $SYSTEM 
     KDIAG=3
 $END

 $GUESS
    GUESS=HUCKEL
 $END

! Basis Set: unc-bfd-v5z

 $DATA  

C1
Ne 10 0.0 0.0 0.0
s 1 1.00
1 0.205835     1.000 
s 1 1.00
1 0.391384     1.000
s 1 1.00
1 0.744196     1.000
s 1 1.00
1 1.415048     1.000
s 1 1.00
1 2.690638     1.000
s 1 1.00
1 5.116103     1.000
s 1 1.00
1 9.727994     1.000
s 1 1.00
1 18.497256    1.000
s 1 1.00
1 35.171534    1.000
s 1 1.00
1 0.318678     1.000000
s 1 1.00
1 0.830178     1.000000
s 1 1.00
1 1.591904     1.000000
s 1 1.00
1 2.744999     1.000000
p 1 1.00
1 0.121772     1.000 
p 1 1.00
2 0.238248     1.000 
p 1 1.00
3 0.466136     1.000 
p 1 1.00
4 0.912002     1.000 
p 1 1.00
5 1.784344     1.000 
p 1 1.00
6 3.491095     1.000 
p 1 1.00
7 6.830378     1.000 
p 1 1.00
8 13.363732    1.000 
p 1 1.00
9 26.146332    1.000 
p 1 1.00
1 0.218226     1.000000
p 1 1.00
1 0.636921     1.000000
p 1 1.00
1 1.888191     1.000000
p 1 1.00
1 3.020108     1.000000
d 1 1.00
1 0.654924     1.000000
d 1 1.00
1 1.931502     1.000000
d 1 1.00
1 5.027566     1.000000
d 1 1.00
1 6.989700     1.000000
f 1 1.00
1 1.314297     1.000000
f 1 1.00
1 4.065928     1.000000
f 1 1.00
1 5.587487     1.000000
g 1 1.00
1 2.070925     1.000000
g 1 1.00
1 6.073107     1.000000

 $END

 $ECP
Ne-QMC GEN 2 1
3
8.00000000 1 10.74945199
85.99561593 3 10.19801460
-56.79004456 2 10.18694048
1
55.11144535 2 12.85042963
 $END


