 $CONTRL 
     SCFTYP=ROHF
     MULT=5
     ICHARG=0
     RUNTYP=ENERGY 
     MAXIT=150 
     PP=READ
 $END

 $CONTRL 
     ISPHER=1 
 $END

 $SYSTEM 
     KDIAG=3
     mwords=125 
 $END

 $GUESS
    GUESS=MOREAD
    NORB=225
    NORDER=1
    IORDER(5)=10,5,6,7,8,9
 $END

 $DATA  
                                                                                
C1
Fe 26 0. 0. 0.
S   1
  1      0.1327714E+08          1.0000000        
S   1
  1 1987888.0000000             1.0000000        
S   1
  1 452387.1000000              1.0000000        
S   1
  1 128143.7000000              1.0000000        
S   1
  1  41809.1700000              1.0000000        
S   1
  1  15095.3300000              1.0000000        
S   1
  1   5888.4380000              1.0000000        
S   1
  1   2442.8760000              1.0000000        
S   1
  1   1065.8570000              1.0000000        
S   1
  1    484.9096000              1.0000000        
S   1
  1    228.4585000              1.0000000        
S   1
  1    110.7453000              1.0000000        
S   1
  1     54.4311600              1.0000000        
S   1
  1     25.0109600              1.0000000        
S   1
  1     12.5926200              1.0000000        
S   1
  1      6.3232020              1.0000000        
S   1
  1      2.8833840              1.0000000        
S   1
  1      1.3828680              1.0000000        
S   1
  1      0.6322010              1.0000000        
S   1
  1      0.1492380              1.0000000        
S   1
  1      0.0684940              1.0000000        
S   1
  1      0.0303810              1.0000000        
S   1
  1      5.7900000              1.0000000        
S   1
  1      1.7335000              1.0000000        
S   1
  1      0.0134800              1.0000000        
P   1
  1  38282.0500000              1.0000000        
P   1
  1   9061.5560000              1.0000000        
P   1
  1   2944.4500000              1.0000000        
P   1
  1   1128.1580000              1.0000000        
P   1
  1    480.3380000              1.0000000        
P   1
  1    220.1368000              1.0000000        
P   1
  1    106.5482000              1.0000000        
P   1
  1     53.7426200              1.0000000        
P   1
  1     27.8631800              1.0000000        
P   1
  1     14.7438200              1.0000000        
P   1
  1      7.8933510              1.0000000        
P   1
  1      4.1794970              1.0000000        
P   1
  1      2.1656690              1.0000000        
P   1
  1      1.0972400              1.0000000        
P   1
  1      0.5360850              1.0000000        
P   1
  1      0.2024530              1.0000000        
P   1
  1      0.0816950              1.0000000        
P   1
  1      0.0326140              1.0000000        
P   1
  1      8.3687000              1.0000000        
P   1
  1      2.2601000              1.0000000        
P   1
  1      0.0130200              1.0000000        
D   1 
  1    350.9950000              1.0000000        
D   1 
  1    103.6670000              1.0000000        
D   1 
  1     39.7043000              1.0000000        
D   1 
  1     17.0310000              1.0000000        
D   1 
  1      7.7890200              1.0000000        
D   1 
  1      3.6995500              1.0000000        
D   1 
  1      1.7553200              1.0000000        
D   1 
  1      0.8128450              1.0000000        
D   1 
  1      0.3614410              1.0000000        
D   1 
  1      0.1513460              1.0000000        
D   1
  1      0.0575130              1.0000000        
D   1
  1      5.4967000              1.0000000        
D   1
  1      2.8925000              1.0000000        
D   1
  1      0.0218600              1.0000000        
F   1
  1      7.7828000              1.0000000        
F   1
  1      3.2584000              1.0000000        
F   1
  1      1.3641000              1.0000000        
F   1
  1      0.4564000              1.0000000        
F   1
  1      0.1527000              1.0000000        
G   1
  1      6.3816000              1.0000000        
G   1
  1      2.7717000              1.0000000        
G   1
  1      1.0505000              1.0000000        
G   1
  1      0.3981500              1.0000000        

 $END

 $ECP
Fe-STU GEN 10 3
1
0.000000    2 1.000000  
2
253.749588  2 20.930000 
37.922845   2 9.445000  
2
161.036812  2 21.760000 
27.651298   2 9.178000  
2
-24.431276  2 25.900000 
-1.434251   2 8.835000  

 $END


 $VEC   
 1  1 2.06173704E-09 3.05136678E-08 4.93278208E-08 8.27806857E-07 1.82861507E-07
 1  2 1.18756299E-05-4.94128596E-06 1.18146583E-04-1.02505708E-04 8.86079179E-04
 1  3-1.28732676E-03 5.64098132E-03-1.71832017E-02 1.05754745E-01-1.83431423E-01
 1  4-3.29223589E-01 3.72277583E-01 7.84300685E-01 2.87831625E-01 1.34296967E-02
 1  5-5.36491494E-03 3.03911677E-03-4.73519370E-02-1.24238715E-01-8.19406850E-04
 1  6 0.00000000E+00 0.00000000E+00 0.00000000E+00 0.00000000E+00 0.00000000E+00
 1  7 0.00000000E+00 0.00000000E+00 0.00000000E+00 0.00000000E+00 0.00000000E+00
 1  8 0.00000000E+00 0.00000000E+00 0.00000000E+00 0.00000000E+00 0.00000000E+00
 1  9 0.00000000E+00 0.00000000E+00 0.00000000E+00 0.00000000E+00 0.00000000E+00
 1 10 0.00000000E+00 0.00000000E+00 0.00000000E+00 0.00000000E+00 0.00000000E+00
 1 11 0.00000000E+00 0.00000000E+00 0.00000000E+00 0.00000000E+00 0.00000000E+00
 1 12 0.00000000E+00 0.00000000E+00 0.00000000E+00 0.00000000E+00 0.00000000E+00
 1 13 0.00000000E+00 0.00000000E+00 0.00000000E+00 0.00000000E+00 0.00000000E+00
 1 14 0.00000000E+00 0.00000000E+00 0.00000000E+00 0.00000000E+00 0.00000000E+00
 1 15 0.00000000E+00 0.00000000E+00 0.00000000E+00 0.00000000E+00 0.00000000E+00
 1 16 0.00000000E+00 0.00000000E+00 0.00000000E+00 0.00000000E+00 0.00000000E+00
 1 17 0.00000000E+00 0.00000000E+00 0.00000000E+00 0.00000000E+00 0.00000000E+00
 1 18 0.00000000E+00 0.00000000E+00 0.00000000E+00 4.05612949E-08 4.05682370E-08
 1 19-8.11295319E-08 0.00000000E+00 0.00000000E+00 0.00000000E+00 1.33419285E-06
 1 20 1.33416884E-06-2.66836169E-06 0.00000000E+00 0.00000000E+00 0.00000000E+00
 1 21 5.47189896E-06 5.47193149E-06-1.09438305E-05 0.00000000E+00 0.00000000E+00
 1 22 0.00000000E+00 4.74396739E-05 4.74396288E-05-9.48793026E-05 0.00000000E+00
 1 23 0.00000000E+00 0.00000000E+00 1.49947533E-04 1.49947656E-04-2.99895189E-04
 1 24 0.00000000E+00 0.00000000E+00 0.00000000E+00-2.37176969E-04-2.37176755E-04
 1 25 4.74353724E-04 0.00000000E+00 0.00000000E+00 0.00000000E+00-3.70494230E-04
 1 26-3.70494203E-04 7.40988433E-04 0.00000000E+00 0.00000000E+00 0.00000000E+00
 1 27 8.36263800E-04 8.36263792E-04-1.67252759E-03 0.00000000E+00 0.00000000E+00
 1 28 0.00000000E+00 8.60001269E-04 8.60001272E-04-1.72000254E-03 0.00000000E+00
 1 29 0.00000000E+00 0.00000000E+00 1.64199590E-04 1.64199585E-04-3.28399174E-04
 1 30 0.00000000E+00 0.00000000E+00 0.00000000E+00 1.39434100E-06 1.39433909E-06
 1 31-2.78868009E-06 0.00000000E+00 0.00000000E+00 0.00000000E+00-1.78897733E-05
 1 32-1.78899703E-05 3.57797435E-05 0.00000000E+00 0.00000000E+00 0.00000000E+00
 1 33-8.16533640E-05-8.16535013E-05 1.63306865E-04 0.00000000E+00 0.00000000E+00
 1 34 0.00000000E+00-6.38186164E-08-6.38278877E-08 1.27646504E-07 0.00000000E+00
 1 35 0.00000000E+00 0.00000000E+00 0.00000000E+00 0.00000000E+00 0.00000000E+00
 1 36 0.00000000E+00 0.00000000E+00 0.00000000E+00 0.00000000E+00 0.00000000E+00
 1 37 0.00000000E+00 0.00000000E+00 0.00000000E+00 0.00000000E+00 0.00000000E+00
 1 38 0.00000000E+00 0.00000000E+00 0.00000000E+00 0.00000000E+00 0.00000000E+00
 1 39 0.00000000E+00 0.00000000E+00 0.00000000E+00 0.00000000E+00 0.00000000E+00
 1 40 0.00000000E+00 0.00000000E+00 0.00000000E+00 0.00000000E+00 0.00000000E+00
 1 41 0.00000000E+00 0.00000000E+00 0.00000000E+00 0.00000000E+00 0.00000000E+00
 1 42 0.00000000E+00 0.00000000E+00 0.00000000E+00 0.00000000E+00 0.00000000E+00
 1 43 0.00000000E+00 0.00000000E+00 0.00000000E+00 0.00000000E+00 0.00000000E+00
 1 44 0.00000000E+00 0.00000000E+00 0.00000000E+00 0.00000000E+00 0.00000000E+00
 1 45 0.00000000E+00 0.00000000E+00 1.44202736E-04 1.44202739E-04 3.01027323E-05
 1 46 0.00000000E+00 0.00000000E+00 0.00000000E+00 0.00000000E+00 0.00000000E+00
 1 47 0.00000000E+00-2.26869899E-04-2.64395309E-05-2.64395347E-05 0.00000000E+00
 1 48 0.00000000E+00 0.00000000E+00 2.16997054E-04 2.16997048E-04 4.35045793E-05
 1 49 0.00000000E+00 0.00000000E+00 0.00000000E+00 0.00000000E+00 0.00000000E+00
 1 50 0.00000000E+00-3.42970878E-04-3.82105147E-05-3.82105051E-05 0.00000000E+00
 1 51 0.00000000E+00 0.00000000E+00 5.25369547E-04 5.25369549E-04 9.77259207E-05
 1 52 0.00000000E+00 0.00000000E+00 0.00000000E+00 0.00000000E+00 0.00000000E+00
 1 53 0.00000000E+00-8.37041065E-04-8.58336578E-05-8.58336620E-05 0.00000000E+00
 1 54 0.00000000E+00 0.00000000E+00 1.05100658E-04 1.05100659E-04 1.39601242E-05
 1 55 0.00000000E+00 0.00000000E+00 0.00000000E+00 0.00000000E+00 0.00000000E+00
 1 56 0.00000000E+00-1.72360615E-04-1.22613163E-05-1.22613189E-05 0.00000000E+00
 1 57 0.00000000E+00 0.00000000E+00
 2  1-0.00000000E+00-0.00000000E+00-0.00000000E+00-0.00000000E+00-0.00000000E+00
 2  2-0.00000000E+00-0.00000000E+00-0.00000000E+00-0.00000000E+00-0.00000000E+00
 2  3-0.00000000E+00-0.00000000E+00-0.00000000E+00-0.00000000E+00-0.00000000E+00
 2  4-0.00000000E+00-0.00000000E+00-0.00000000E+00-0.00000000E+00-0.00000000E+00
 2  5-0.00000000E+00-0.00000000E+00-0.00000000E+00-0.00000000E+00-0.00000000E+00
 2  6-5.33893898E-09-0.00000000E+00-0.00000000E+00 1.06205800E-06-0.00000000E+00
 2  7-0.00000000E+00-4.82879395E-08-0.00000000E+00-0.00000000E+00 2.71113870E-05
 2  8-0.00000000E+00-0.00000000E+00 6.74463519E-07-0.00000000E+00-0.00000000E+00
 2  9 3.34451285E-04-0.00000000E+00-0.00000000E+00-1.79101129E-04-0.00000000E+00
 2 10-0.00000000E+00 2.52537863E-03-0.00000000E+00-0.00000000E+00 6.73977416E-03
 2 11-0.00000000E+00-0.00000000E+00-6.65273185E-02-0.00000000E+00-0.00000000E+00
 2 12 1.52439923E-02-0.00000000E+00-0.00000000E+00 1.79675867E-01-0.00000000E+00
 2 13-0.00000000E+00 2.33988169E-01-0.00000000E+00-0.00000000E+00 3.88554380E-01
 2 14-0.00000000E+00-0.00000000E+00 1.58527489E-01-0.00000000E+00-0.00000000E+00
 2 15 1.49831771E-02-0.00000000E+00-0.00000000E+00-2.18038704E-03-0.00000000E+00
 2 16-0.00000000E+00 9.69963844E-04-0.00000000E+00-0.00000000E+00-5.19402532E-02
 2 17-0.00000000E+00-0.00000000E+00 1.77351961E-01-0.00000000E+00-0.00000000E+00
 2 18-2.93911633E-04-0.00000000E+00-0.00000000E+00-0.00000000E+00-0.00000000E+00
 2 19-0.00000000E+00-0.00000000E+00-0.00000000E+00-0.00000000E+00-0.00000000E+00
 2 20-0.00000000E+00-0.00000000E+00-0.00000000E+00-0.00000000E+00-0.00000000E+00
 2 21-0.00000000E+00-0.00000000E+00-0.00000000E+00-0.00000000E+00-0.00000000E+00
 2 22-0.00000000E+00-0.00000000E+00-0.00000000E+00-0.00000000E+00-0.00000000E+00
 2 23-0.00000000E+00-0.00000000E+00-0.00000000E+00-0.00000000E+00-0.00000000E+00
 2 24-0.00000000E+00-0.00000000E+00-0.00000000E+00-0.00000000E+00-0.00000000E+00
 2 25-0.00000000E+00-0.00000000E+00-0.00000000E+00-0.00000000E+00-0.00000000E+00
 2 26-0.00000000E+00-0.00000000E+00-0.00000000E+00-0.00000000E+00-0.00000000E+00
 2 27-0.00000000E+00-0.00000000E+00-0.00000000E+00-0.00000000E+00-0.00000000E+00
 2 28-0.00000000E+00-0.00000000E+00-0.00000000E+00-0.00000000E+00-0.00000000E+00
 2 29-0.00000000E+00-0.00000000E+00-0.00000000E+00-0.00000000E+00-0.00000000E+00
 2 30-0.00000000E+00-0.00000000E+00-0.00000000E+00-0.00000000E+00-0.00000000E+00
 2 31-0.00000000E+00-0.00000000E+00-0.00000000E+00-0.00000000E+00-0.00000000E+00
 2 32-0.00000000E+00-0.00000000E+00-0.00000000E+00-0.00000000E+00-0.00000000E+00
 2 33-0.00000000E+00-0.00000000E+00-0.00000000E+00-0.00000000E+00-0.00000000E+00
 2 34-0.00000000E+00-0.00000000E+00-0.00000000E+00-0.00000000E+00-0.00000000E+00
 2 35-0.00000000E+00-0.00000000E+00 5.88233534E-04-0.00000000E+00-0.00000000E+00
 2 36-0.00000000E+00-0.00000000E+00-9.24814809E-04-0.00000000E+00 1.35616707E-04
 2 37-0.00000000E+00-0.00000000E+00 6.64849322E-04-0.00000000E+00-0.00000000E+00
 2 38-0.00000000E+00-0.00000000E+00-2.10037834E-03-0.00000000E+00 1.20838937E-03
 2 39-0.00000000E+00-0.00000000E+00 2.04738409E-03-0.00000000E+00-0.00000000E+00
 2 40-0.00000000E+00-0.00000000E+00-3.85436961E-03-0.00000000E+00 1.10751562E-03
 2 41-0.00000000E+00-0.00000000E+00 1.76391709E-03-0.00000000E+00-0.00000000E+00
 2 42-0.00000000E+00-0.00000000E+00-2.16451819E-03-0.00000000E+00-2.02024922E-04
 2 43-0.00000000E+00-0.00000000E+00 3.28885197E-05-0.00000000E+00-0.00000000E+00
 2 44-0.00000000E+00-0.00000000E+00 1.96493565E-06-0.00000000E+00-4.60895150E-05
 2 45-0.00000000E+00-0.00000000E+00-0.00000000E+00-0.00000000E+00-0.00000000E+00
 2 46-0.00000000E+00-0.00000000E+00-0.00000000E+00-0.00000000E+00-0.00000000E+00
 2 47-0.00000000E+00-0.00000000E+00-0.00000000E+00-0.00000000E+00-0.00000000E+00
 2 48-0.00000000E+00-0.00000000E+00-0.00000000E+00-0.00000000E+00-0.00000000E+00
 2 49-0.00000000E+00-0.00000000E+00-0.00000000E+00-0.00000000E+00-0.00000000E+00
 2 50-0.00000000E+00-0.00000000E+00-0.00000000E+00-0.00000000E+00-0.00000000E+00
 2 51-0.00000000E+00-0.00000000E+00-0.00000000E+00-0.00000000E+00-0.00000000E+00
 2 52-0.00000000E+00-0.00000000E+00-0.00000000E+00-0.00000000E+00-0.00000000E+00
 2 53-0.00000000E+00-0.00000000E+00-0.00000000E+00-0.00000000E+00-0.00000000E+00
 2 54-0.00000000E+00-0.00000000E+00-0.00000000E+00-0.00000000E+00-0.00000000E+00
 2 55-0.00000000E+00-0.00000000E+00-0.00000000E+00-0.00000000E+00-0.00000000E+00
 2 56-0.00000000E+00-0.00000000E+00-0.00000000E+00-0.00000000E+00-0.00000000E+00
 2 57-0.00000000E+00-0.00000000E+00
 3  1-0.00000000E+00-0.00000000E+00-0.00000000E+00-0.00000000E+00-0.00000000E+00
 3  2-0.00000000E+00-0.00000000E+00-0.00000000E+00-0.00000000E+00-0.00000000E+00
 3  3-0.00000000E+00-0.00000000E+00-0.00000000E+00-0.00000000E+00-0.00000000E+00
 3  4-0.00000000E+00-0.00000000E+00-0.00000000E+00-0.00000000E+00-0.00000000E+00
 3  5-0.00000000E+00-0.00000000E+00-0.00000000E+00-0.00000000E+00-0.00000000E+00
 3  6-0.00000000E+00-5.33893617E-09-0.00000000E+00-0.00000000E+00 1.06205800E-06
 3  7-0.00000000E+00-0.00000000E+00-4.82879387E-08-0.00000000E+00-0.00000000E+00
 3  8 2.71113870E-05-0.00000000E+00-0.00000000E+00 6.74463558E-07-0.00000000E+00
 3  9-0.00000000E+00 3.34451285E-04-0.00000000E+00-0.00000000E+00-1.79101129E-04
 3 10-0.00000000E+00-0.00000000E+00 2.52537863E-03-0.00000000E+00-0.00000000E+00
 3 11 6.73977416E-03-0.00000000E+00-0.00000000E+00-6.65273185E-02-0.00000000E+00
 3 12-0.00000000E+00 1.52439924E-02-0.00000000E+00-0.00000000E+00 1.79675867E-01
 3 13-0.00000000E+00-0.00000000E+00 2.33988169E-01-0.00000000E+00-0.00000000E+00
 3 14 3.88554380E-01-0.00000000E+00-0.00000000E+00 1.58527489E-01-0.00000000E+00
 3 15-0.00000000E+00 1.49831771E-02-0.00000000E+00-0.00000000E+00-2.18038704E-03
 3 16-0.00000000E+00-0.00000000E+00 9.69963842E-04-0.00000000E+00-0.00000000E+00
 3 17-5.19402533E-02-0.00000000E+00-0.00000000E+00 1.77351961E-01-0.00000000E+00
 3 18-0.00000000E+00-2.93911632E-04-0.00000000E+00-0.00000000E+00-0.00000000E+00
 3 19-0.00000000E+00-0.00000000E+00-0.00000000E+00-0.00000000E+00-0.00000000E+00
 3 20-0.00000000E+00-0.00000000E+00-0.00000000E+00-0.00000000E+00-0.00000000E+00
 3 21-0.00000000E+00-0.00000000E+00-0.00000000E+00-0.00000000E+00-0.00000000E+00
 3 22-0.00000000E+00-0.00000000E+00-0.00000000E+00-0.00000000E+00-0.00000000E+00
 3 23-0.00000000E+00-0.00000000E+00-0.00000000E+00-0.00000000E+00-0.00000000E+00
 3 24-0.00000000E+00-0.00000000E+00-0.00000000E+00-0.00000000E+00-0.00000000E+00
 3 25-0.00000000E+00-0.00000000E+00-0.00000000E+00-0.00000000E+00-0.00000000E+00
 3 26-0.00000000E+00-0.00000000E+00-0.00000000E+00-0.00000000E+00-0.00000000E+00
 3 27-0.00000000E+00-0.00000000E+00-0.00000000E+00-0.00000000E+00-0.00000000E+00
 3 28-0.00000000E+00-0.00000000E+00-0.00000000E+00-0.00000000E+00-0.00000000E+00
 3 29-0.00000000E+00-0.00000000E+00-0.00000000E+00-0.00000000E+00-0.00000000E+00
 3 30-0.00000000E+00-0.00000000E+00-0.00000000E+00-0.00000000E+00-0.00000000E+00
 3 31-0.00000000E+00-0.00000000E+00-0.00000000E+00-0.00000000E+00-0.00000000E+00
 3 32-0.00000000E+00-0.00000000E+00-0.00000000E+00-0.00000000E+00-0.00000000E+00
 3 33-0.00000000E+00-0.00000000E+00-0.00000000E+00-0.00000000E+00-0.00000000E+00
 3 34-0.00000000E+00-0.00000000E+00-0.00000000E+00-0.00000000E+00-0.00000000E+00
 3 35-0.00000000E+00-0.00000000E+00-0.00000000E+00 5.88233534E-04-0.00000000E+00
 3 36-9.24814809E-04-0.00000000E+00-0.00000000E+00-0.00000000E+00-0.00000000E+00
 3 37 1.35616707E-04-0.00000000E+00-0.00000000E+00 6.64849322E-04-0.00000000E+00
 3 38-2.10037834E-03-0.00000000E+00-0.00000000E+00-0.00000000E+00-0.00000000E+00
 3 39 1.20838937E-03-0.00000000E+00-0.00000000E+00 2.04738409E-03-0.00000000E+00
 3 40-3.85436961E-03-0.00000000E+00-0.00000000E+00-0.00000000E+00-0.00000000E+00
 3 41 1.10751562E-03-0.00000000E+00-0.00000000E+00 1.76391709E-03-0.00000000E+00
 3 42-2.16451819E-03-0.00000000E+00-0.00000000E+00-0.00000000E+00-0.00000000E+00
 3 43-2.02024922E-04-0.00000000E+00-0.00000000E+00 3.28885197E-05-0.00000000E+00
 3 44 1.96493572E-06-0.00000000E+00-0.00000000E+00-0.00000000E+00-0.00000000E+00
 3 45-4.60895152E-05-0.00000000E+00-0.00000000E+00-0.00000000E+00-0.00000000E+00
 3 46-0.00000000E+00-0.00000000E+00-0.00000000E+00-0.00000000E+00-0.00000000E+00
 3 47-0.00000000E+00-0.00000000E+00-0.00000000E+00-0.00000000E+00-0.00000000E+00
 3 48-0.00000000E+00-0.00000000E+00-0.00000000E+00-0.00000000E+00-0.00000000E+00
 3 49-0.00000000E+00-0.00000000E+00-0.00000000E+00-0.00000000E+00-0.00000000E+00
 3 50-0.00000000E+00-0.00000000E+00-0.00000000E+00-0.00000000E+00-0.00000000E+00
 3 51-0.00000000E+00-0.00000000E+00-0.00000000E+00-0.00000000E+00-0.00000000E+00
 3 52-0.00000000E+00-0.00000000E+00-0.00000000E+00-0.00000000E+00-0.00000000E+00
 3 53-0.00000000E+00-0.00000000E+00-0.00000000E+00-0.00000000E+00-0.00000000E+00
 3 54-0.00000000E+00-0.00000000E+00-0.00000000E+00-0.00000000E+00-0.00000000E+00
 3 55-0.00000000E+00-0.00000000E+00-0.00000000E+00-0.00000000E+00-0.00000000E+00
 3 56-0.00000000E+00-0.00000000E+00-0.00000000E+00-0.00000000E+00-0.00000000E+00
 3 57-0.00000000E+00-0.00000000E+00
 4  1 0.00000000E+00 0.00000000E+00 0.00000000E+00 0.00000000E+00 0.00000000E+00
 4  2 0.00000000E+00 0.00000000E+00 0.00000000E+00 0.00000000E+00 0.00000000E+00
 4  3 0.00000000E+00 0.00000000E+00 0.00000000E+00 0.00000000E+00 0.00000000E+00
 4  4 0.00000000E+00 0.00000000E+00 0.00000000E+00 0.00000000E+00 0.00000000E+00
 4  5 0.00000000E+00 0.00000000E+00 0.00000000E+00 0.00000000E+00 0.00000000E+00
 4  6 0.00000000E+00 0.00000000E+00-4.93141801E-09 0.00000000E+00 0.00000000E+00
 4  7 1.05818163E-06 0.00000000E+00 0.00000000E+00-2.92614948E-08 0.00000000E+00
 4  8 0.00000000E+00 2.70163657E-05 0.00000000E+00 0.00000000E+00 9.85405709E-07
 4  9 0.00000000E+00 0.00000000E+00 3.33259579E-04 0.00000000E+00 0.00000000E+00
 4 10-1.75620304E-04 0.00000000E+00 0.00000000E+00 2.51207340E-03 0.00000000E+00
 4 11 0.00000000E+00 6.79747740E-03 0.00000000E+00 0.00000000E+00-6.65860832E-02
 4 12 0.00000000E+00 0.00000000E+00 1.39310409E-02 0.00000000E+00 0.00000000E+00
 4 13 1.79590156E-01 0.00000000E+00 0.00000000E+00 2.33750405E-01 0.00000000E+00
 4 14 0.00000000E+00 3.90225490E-01 0.00000000E+00 0.00000000E+00 1.55591615E-01
 4 15 0.00000000E+00 0.00000000E+00 1.36744213E-02 0.00000000E+00 0.00000000E+00
 4 16-2.01701051E-03 0.00000000E+00 0.00000000E+00 8.89713670E-04 0.00000000E+00
 4 17 0.00000000E+00-5.11082491E-02 0.00000000E+00 0.00000000E+00 1.79203430E-01
 4 18 0.00000000E+00 0.00000000E+00-2.69065270E-04 0.00000000E+00 0.00000000E+00
 4 19 0.00000000E+00 0.00000000E+00 0.00000000E+00 0.00000000E+00 0.00000000E+00
 4 20 0.00000000E+00 0.00000000E+00 0.00000000E+00 0.00000000E+00 0.00000000E+00
 4 21 0.00000000E+00 0.00000000E+00 0.00000000E+00 0.00000000E+00 0.00000000E+00
 4 22 0.00000000E+00 0.00000000E+00 0.00000000E+00 0.00000000E+00 0.00000000E+00
 4 23 0.00000000E+00 0.00000000E+00 0.00000000E+00 0.00000000E+00 0.00000000E+00
 4 24 0.00000000E+00 0.00000000E+00 0.00000000E+00 0.00000000E+00 0.00000000E+00
 4 25 0.00000000E+00 0.00000000E+00 0.00000000E+00 0.00000000E+00 0.00000000E+00
 4 26 0.00000000E+00 0.00000000E+00 0.00000000E+00 0.00000000E+00 0.00000000E+00
 4 27 0.00000000E+00 0.00000000E+00 0.00000000E+00 0.00000000E+00 0.00000000E+00
 4 28 0.00000000E+00 0.00000000E+00 0.00000000E+00 0.00000000E+00 0.00000000E+00
 4 29 0.00000000E+00 0.00000000E+00 0.00000000E+00 0.00000000E+00 0.00000000E+00
 4 30 0.00000000E+00 0.00000000E+00 0.00000000E+00 0.00000000E+00 0.00000000E+00
 4 31 0.00000000E+00 0.00000000E+00 0.00000000E+00 0.00000000E+00 0.00000000E+00
 4 32 0.00000000E+00 0.00000000E+00 0.00000000E+00 0.00000000E+00 0.00000000E+00
 4 33 0.00000000E+00 0.00000000E+00 0.00000000E+00 0.00000000E+00 0.00000000E+00
 4 34 0.00000000E+00 0.00000000E+00 0.00000000E+00 0.00000000E+00 0.00000000E+00
 4 35 0.00000000E+00 0.00000000E+00 0.00000000E+00 0.00000000E+00 4.17965995E-04
 4 36 0.00000000E+00-2.80380119E-04 0.00000000E+00-2.80380107E-04 0.00000000E+00
 4 37 0.00000000E+00 0.00000000E+00 0.00000000E+00 0.00000000E+00 1.89504194E-03
 4 38 0.00000000E+00-1.27123278E-03 0.00000000E+00-1.27123278E-03 0.00000000E+00
 4 39 0.00000000E+00 0.00000000E+00 0.00000000E+00 0.00000000E+00 2.30812944E-03
 4 40 0.00000000E+00-1.54834030E-03 0.00000000E+00-1.54834030E-03 0.00000000E+00
 4 41 0.00000000E+00 0.00000000E+00 0.00000000E+00 0.00000000E+00 4.29036886E-04
 4 42 0.00000000E+00-2.87806691E-04 0.00000000E+00-2.87806694E-04 0.00000000E+00
 4 43 0.00000000E+00 0.00000000E+00 0.00000000E+00 0.00000000E+00-4.80134981E-05
 4 44 0.00000000E+00 3.22084275E-05 0.00000000E+00 3.22084399E-05 0.00000000E+00
 4 45 0.00000000E+00 0.00000000E+00 0.00000000E+00 0.00000000E+00 0.00000000E+00
 4 46 0.00000000E+00 0.00000000E+00 0.00000000E+00 0.00000000E+00 0.00000000E+00
 4 47 0.00000000E+00 0.00000000E+00 0.00000000E+00 0.00000000E+00 0.00000000E+00
 4 48 0.00000000E+00 0.00000000E+00 0.00000000E+00 0.00000000E+00 0.00000000E+00
 4 49 0.00000000E+00 0.00000000E+00 0.00000000E+00 0.00000000E+00 0.00000000E+00
 4 50 0.00000000E+00 0.00000000E+00 0.00000000E+00 0.00000000E+00 0.00000000E+00
 4 51 0.00000000E+00 0.00000000E+00 0.00000000E+00 0.00000000E+00 0.00000000E+00
 4 52 0.00000000E+00 0.00000000E+00 0.00000000E+00 0.00000000E+00 0.00000000E+00
 4 53 0.00000000E+00 0.00000000E+00 0.00000000E+00 0.00000000E+00 0.00000000E+00
 4 54 0.00000000E+00 0.00000000E+00 0.00000000E+00 0.00000000E+00 0.00000000E+00
 4 55 0.00000000E+00 0.00000000E+00 0.00000000E+00 0.00000000E+00 0.00000000E+00
 4 56 0.00000000E+00 0.00000000E+00 0.00000000E+00 0.00000000E+00 0.00000000E+00
 4 57 0.00000000E+00 0.00000000E+00
 5  1-0.00000000E+00-0.00000000E+00-0.00000000E+00-0.00000000E+00-0.00000000E+00
 5  2-0.00000000E+00-0.00000000E+00-0.00000000E+00-0.00000000E+00-0.00000000E+00
 5  3-0.00000000E+00-0.00000000E+00-0.00000000E+00-1.09813708E-11-0.00000000E+00
 5  4-3.24472684E-11 2.74044007E-11 1.16591854E-10-2.63663630E-11-0.00000000E+00
 5  5 1.59488667E-11-1.89536185E-11 2.56888426E-11-1.14865255E-10-0.00000000E+00
 5  6-0.00000000E+00-0.00000000E+00-0.00000000E+00-0.00000000E+00-0.00000000E+00
 5  7-0.00000000E+00-0.00000000E+00-0.00000000E+00-0.00000000E+00-0.00000000E+00
 5  8-0.00000000E+00-0.00000000E+00-0.00000000E+00-0.00000000E+00-0.00000000E+00
 5  9-0.00000000E+00-0.00000000E+00-0.00000000E+00-0.00000000E+00-0.00000000E+00
 5 10-0.00000000E+00-0.00000000E+00-0.00000000E+00-0.00000000E+00-0.00000000E+00
 5 11-0.00000000E+00-0.00000000E+00-0.00000000E+00-0.00000000E+00-0.00000000E+00
 5 12-0.00000000E+00-0.00000000E+00-0.00000000E+00-0.00000000E+00-0.00000000E+00
 5 13-0.00000000E+00-0.00000000E+00-0.00000000E+00-0.00000000E+00-0.00000000E+00
 5 14-0.00000000E+00-0.00000000E+00-0.00000000E+00-0.00000000E+00-0.00000000E+00
 5 15-0.00000000E+00-0.00000000E+00-0.00000000E+00-0.00000000E+00-0.00000000E+00
 5 16-0.00000000E+00-0.00000000E+00-0.00000000E+00-0.00000000E+00-0.00000000E+00
 5 17-0.00000000E+00-0.00000000E+00-0.00000000E+00-0.00000000E+00-0.00000000E+00
 5 18-0.00000000E+00-0.00000000E+00-0.00000000E+00-1.59959398E-04 1.59959398E-04
 5 19-0.00000000E+00-0.00000000E+00-0.00000000E+00-0.00000000E+00-1.60312091E-03
 5 20 1.60312091E-03-0.00000000E+00-0.00000000E+00-0.00000000E+00-0.00000000E+00
 5 21-1.33364403E-02 1.33364404E-02-0.00000000E+00-0.00000000E+00-0.00000000E+00
 5 22-0.00000000E+00-5.19993408E-02 5.19993408E-02-0.00000000E+00-0.00000000E+00
 5 23-0.00000000E+00-0.00000000E+00-1.18375774E-01 1.18375774E-01-0.00000000E+00
 5 24-0.00000000E+00-0.00000000E+00-0.00000000E+00-1.99208302E-01 1.99208302E-01
 5 25-0.00000000E+00-0.00000000E+00-0.00000000E+00-0.00000000E+00-2.68379367E-01
 5 26 2.68379367E-01-0.00000000E+00-0.00000000E+00-0.00000000E+00-0.00000000E+00
 5 27-2.63530648E-01 2.63530648E-01-0.00000000E+00-0.00000000E+00-0.00000000E+00
 5 28-0.00000000E+00-1.82396011E-01 1.82396011E-01-0.00000000E+00-0.00000000E+00
 5 29-0.00000000E+00-0.00000000E+00-5.76554576E-02 5.76554576E-02-0.00000000E+00
 5 30-0.00000000E+00-0.00000000E+00-0.00000000E+00-5.79024737E-04 5.79024754E-04
 5 31-1.69295394E-11-0.00000000E+00-0.00000000E+00-0.00000000E+00-1.09026990E-02
 5 32 1.09026990E-02-0.00000000E+00-0.00000000E+00-0.00000000E+00-0.00000000E+00
 5 33-1.14775682E-02 1.14775682E-02-0.00000000E+00-0.00000000E+00-0.00000000E+00
 5 34-0.00000000E+00-4.06035011E-04 4.06035006E-04-0.00000000E+00-0.00000000E+00
 5 35-0.00000000E+00-0.00000000E+00-0.00000000E+00-0.00000000E+00-0.00000000E+00
 5 36-0.00000000E+00-0.00000000E+00-0.00000000E+00-0.00000000E+00-0.00000000E+00
 5 37-0.00000000E+00-0.00000000E+00-0.00000000E+00-0.00000000E+00-0.00000000E+00
 5 38-0.00000000E+00-0.00000000E+00-0.00000000E+00-0.00000000E+00-0.00000000E+00
 5 39-0.00000000E+00-0.00000000E+00-0.00000000E+00-0.00000000E+00-0.00000000E+00
 5 40-0.00000000E+00-0.00000000E+00-0.00000000E+00-0.00000000E+00-0.00000000E+00
 5 41-0.00000000E+00-0.00000000E+00-0.00000000E+00-0.00000000E+00-0.00000000E+00
 5 42-0.00000000E+00-0.00000000E+00-0.00000000E+00-0.00000000E+00-0.00000000E+00
 5 43-0.00000000E+00-0.00000000E+00-0.00000000E+00-0.00000000E+00-0.00000000E+00
 5 44-0.00000000E+00-0.00000000E+00-0.00000000E+00-0.00000000E+00-0.00000000E+00
 5 45-0.00000000E+00-0.00000000E+00 1.46397093E-04-1.46397093E-04-0.00000000E+00
 5 46-0.00000000E+00-0.00000000E+00-0.00000000E+00-0.00000000E+00-0.00000000E+00
 5 47-0.00000000E+00-0.00000000E+00-2.57164081E-04 2.57164081E-04-0.00000000E+00
 5 48-0.00000000E+00-0.00000000E+00 4.34486364E-04-4.34486363E-04-0.00000000E+00
 5 49-0.00000000E+00-0.00000000E+00-0.00000000E+00-0.00000000E+00-0.00000000E+00
 5 50-0.00000000E+00-0.00000000E+00-7.63227493E-04 7.63227494E-04-0.00000000E+00
 5 51-0.00000000E+00-0.00000000E+00 6.32553208E-04-6.32553208E-04-0.00000000E+00
 5 52-0.00000000E+00-0.00000000E+00-0.00000000E+00-0.00000000E+00-0.00000000E+00
 5 53-0.00000000E+00-0.00000000E+00-1.11115570E-03 1.11115570E-03-0.00000000E+00
 5 54-0.00000000E+00-0.00000000E+00 2.63212895E-04-2.63212899E-04-0.00000000E+00
 5 55-0.00000000E+00-0.00000000E+00-0.00000000E+00-0.00000000E+00-0.00000000E+00
 5 56-0.00000000E+00-0.00000000E+00-4.62365075E-04 4.62365073E-04-0.00000000E+00
 5 57-0.00000000E+00-0.00000000E+00
 6  1 0.00000000E+00-8.21199779E-11-9.34240723E-11-2.43711781E-09 5.71068084E-10
 6  2-3.58209998E-08 2.79571881E-08-3.63760869E-07 4.18868876E-07-2.79565568E-06
 6  3 4.53887077E-06-1.80238139E-05 5.17831313E-05-2.63804479E-04 3.62533829E-04
 6  4 8.92542074E-04-7.28460030E-04-2.66303984E-03-5.18672389E-03 1.05080607E-02
 6  5 9.10615235E-03 1.05082735E-04 2.66455572E-04 1.61475921E-05 9.02593710E-05
 6  6 0.00000000E+00 0.00000000E+00 0.00000000E+00 0.00000000E+00 0.00000000E+00
 6  7 0.00000000E+00 0.00000000E+00 0.00000000E+00 0.00000000E+00 0.00000000E+00
 6  8 0.00000000E+00 0.00000000E+00 0.00000000E+00 0.00000000E+00 0.00000000E+00
 6  9 0.00000000E+00 0.00000000E+00 0.00000000E+00 0.00000000E+00 0.00000000E+00
 6 10 0.00000000E+00 0.00000000E+00 0.00000000E+00 0.00000000E+00 0.00000000E+00
 6 11 0.00000000E+00 0.00000000E+00 0.00000000E+00 0.00000000E+00 0.00000000E+00
 6 12 0.00000000E+00 0.00000000E+00 0.00000000E+00 0.00000000E+00 0.00000000E+00
 6 13 0.00000000E+00 0.00000000E+00 0.00000000E+00 0.00000000E+00 0.00000000E+00
 6 14 0.00000000E+00 0.00000000E+00 0.00000000E+00 0.00000000E+00 0.00000000E+00
 6 15 0.00000000E+00 0.00000000E+00 0.00000000E+00 0.00000000E+00 0.00000000E+00
 6 16 0.00000000E+00 0.00000000E+00 0.00000000E+00 0.00000000E+00 0.00000000E+00
 6 17 0.00000000E+00 0.00000000E+00 0.00000000E+00 0.00000000E+00 0.00000000E+00
 6 18 0.00000000E+00 0.00000000E+00 0.00000000E+00-9.47277197E-05-9.47277196E-05
 6 19 1.89455439E-04 0.00000000E+00 0.00000000E+00 0.00000000E+00-9.49226930E-04
 6 20-9.49226929E-04 1.89845386E-03 0.00000000E+00 0.00000000E+00 0.00000000E+00
 6 21-7.89250363E-03-7.89250363E-03 1.57850073E-02 0.00000000E+00 0.00000000E+00
 6 22 0.00000000E+00-3.07545779E-02-3.07545779E-02 6.15091557E-02 0.00000000E+00
 6 23 0.00000000E+00 0.00000000E+00-7.00352507E-02-7.00352507E-02 1.40070501E-01
 6 24 0.00000000E+00 0.00000000E+00 0.00000000E+00-1.18350634E-01-1.18350634E-01
 6 25 2.36701267E-01 0.00000000E+00 0.00000000E+00 0.00000000E+00-1.60242541E-01
 6 26-1.60242541E-01 3.20485081E-01 0.00000000E+00 0.00000000E+00 0.00000000E+00
 6 27-1.52825360E-01-1.52825360E-01 3.05650719E-01 0.00000000E+00 0.00000000E+00
 6 28 0.00000000E+00-9.45453974E-02-9.45453974E-02 1.89090795E-01 0.00000000E+00
 6 29 0.00000000E+00 0.00000000E+00-2.30323160E-02-2.30323160E-02 4.60646320E-02
 6 30 0.00000000E+00 0.00000000E+00 0.00000000E+00 3.27572627E-04 3.27572576E-04
 6 31-6.55145203E-04 0.00000000E+00 0.00000000E+00 0.00000000E+00-6.78025499E-03
 6 32-6.78025490E-03 1.35605099E-02 0.00000000E+00 0.00000000E+00 0.00000000E+00