 $CONTRL 
     SCFTYP=ROHF 
     MULT=1
     ICHARG=0 
     RUNTYP=ENERGY
     MAXIT=150
     ECP=READ
     ISPHER=1
 $END

 $SYSTEM 
     KDIAG=3
 $END

 $GUESS
    GUESS=HUCKEL
 $END


 $DATA  

C1
Ar 18    0. 0. 0.
S  10
  1 17.798602  0.000155
  2 10.185798  0.002011
  3  5.829136  0.072819
  4  3.335903 -0.297567
  5  1.909073 -0.143663
  6  1.092526  0.157775
  7  0.625231  0.391895
  8  0.357808  0.424724
  9  0.204767  0.223240
 10  0.117184  0.063299  
S   1                     
  1  0.777098  1.000000
P  10                     
  1  7.610920 -0.008071  
  2  4.581784 -0.012332
  3  2.758240 -0.061298
  4  1.660464  0.101944
  5  0.999601  0.172497
  6  0.601761  0.288747
  7  0.362261  0.247918
  8  0.218082  0.231893
  9  0.131285  0.095994
 10  0.079034  0.046211
P   1                     
  1  0.784009  1.000000
D   1                     
  1  0.785910  1.000000

 $END

 $ECP
Ar-ccECP GEN 10 2
3
8.000000   1 8.317181 
66.537451  3 13.124648
-24.100393 2 6.503132 
2
18.910152  2 27.068139
53.040012  2 4.801263 
2
8.015534   2 11.135735
28.220208  2 4.126631 
 $END


