 $CONTRL 
     SCFTYP=ROHF 
     MULT=2
     ICHARG=0 
     RUNTYP=ENERGY
     MAXIT=150
     ECP=READ
     ISPHER=1
 $END

 $SYSTEM 
     KDIAG=3
     MWORDS=100
 $END

$SCF
!    DIRSCF=.t.
!    DIIS=.t.
!    DAMP=.t.
!    SHIFT=.t.
    RSTRCT=.t.
$END

 $GUESS
!    GUESS=HUCKEL
    GUESS=MOREAD
    NORB=22
    NORDER=1
    IORDER(5)=6,5,7,8,9,10
 $END


 $DATA  

C1
Sc 21 0.0 0.0 0.0
S  13
  1      66.882574  0.00055300
  2      33.776681  -0.00511500
  3      18.185884  0.00416100
  4      11.748619  0.12160300
  5       6.895190  -0.27013700
  6       3.222124  -0.32441000
  7       1.772120  0.29116200
  8       0.841163  0.62893100
  9       0.471976  0.27340600
 10       0.313224  0.13535200
 11       0.101013  0.00804100
 12       0.049071  -0.00261000
 13       0.022782  0.00059700
S  13
  1      66.882574  -0.00013900
  2      33.776681  0.00134500
  3      18.185884  -0.00144500
  4      11.748619  -0.03208200
  5       6.895190  0.07550600
  6       3.222124  0.08992700
  7       1.772120  -0.09008600
  8       0.841163  -0.21644400
  9       0.471976  -0.17925000
 10       0.313224  -0.12816000
 11       0.101013  0.33793500
 12       0.049071  0.60918100
 13       0.022782  0.24418100
S  13
  1      66.882574  -0.00067900
  2      33.776681  0.00545600
  3      18.185884  -0.01668400
  4      11.748619  -0.03173900
  5       6.895190  0.10956000
  6       3.222124  0.23329300
  7       1.772120  -0.31020700
  8       0.841163  -0.24508300
  9       0.471976  -1.17524800
 10       0.313224  1.03235900
 11       0.101013  1.59903900
 12       0.049071  -0.62399000
 13       0.022782  -0.84749800
S  13
  1      66.882574  -0.00145200
  2      33.776681  0.01136200
  3      18.185884  -0.03987600
  4      11.748619  -0.02581000
  5       6.895190  0.15794300
  6       3.222124  0.45286800
  7       1.772120  -0.76658700
  8       0.841163  -0.60780000
  9       0.471976  -1.71600200
 10       0.313224  3.61400300
 11       0.101013  -0.56948000
 12       0.049071  -2.25596700
 13       0.022782  1.91016000
S  13
  1      66.882574  0.00043000
  2      33.776681  -0.00113700
  3      18.185884  0.02081200
  4      11.748619  -0.18957800
  5       6.895190  0.43867600
  6       3.222124  0.26761800
  7       1.772120  -0.73280800
  8       0.841163  -3.04424000
  9       0.471976  5.47606700
 10       0.313224  -1.01760200
 11       0.101013  -5.01443900
 12       0.049071  6.15979200
 13       0.022782  -2.69036800
S  1
  1       0.022782  1.00000000
P  13
  1      77.690832  0.00008800
  2      39.751864  -0.00075400
  3      20.615633  0.00658400
  4      11.537150  -0.00718900
  5       7.597186  -0.06890300
  6       3.765117  -0.01384200
  7       2.051006  0.24870400
  8       1.048648  0.43432800
  9       0.550231  0.32690600
 10       0.303840  0.10461700
 11       0.165809  0.01851200
 12       0.060419  0.00139500
 13       0.024751  0.00009300
P  13
  1      77.690832  0.00001700
  2      39.751864  -0.00002600
  3      20.615633  -0.00086100
  4      11.537150  -0.00048300
  5       7.597186  0.02136400
  6       3.765117  -0.00370600
  7       2.051006  -0.05871800
  8       1.048648  -0.14336400
  9       0.550231  -0.07728000
 10       0.303840  -0.10776400
 11       0.165809  0.32285900
 12       0.060419  0.62172600
 13       0.024751  0.25378700
P  13
  1      77.690832  -0.00006300
  2      39.751864  0.00054900
  3      20.615633  -0.00512000
  4      11.537150  0.00701100
  5       7.597186  0.05366100
  6       3.765117  0.00357400
  7       2.051006  -0.23586100
  8       1.048648  -0.49480100
  9       0.550231  -0.22957500
 10       0.303840  0.91797300
 11       0.165809  0.62115500
 12       0.060419  -0.82464800
 13       0.024751  -0.15759200
P  13
  1      77.690832  -0.00024300
  2      39.751864  0.00156800
  3      20.615633  -0.00955400
  4      11.537150  0.01802000
  5       7.597186  0.05100800
  6       3.765117  0.04328000
  7       2.051006  -0.40417800
  8       1.048648  -0.82490400
  9       0.550231  0.71001400
 10       0.303840  2.22525500
 11       0.165809  -2.74290300
 12       0.060419  0.58142300
 13       0.024751  0.48091000
P  13
  1      77.690832  -0.00025600
  2      39.751864  0.00108400
  3      20.615633  0.00040000
  4      11.537150  0.02195600
  5       7.597186  -0.16269400
  6       3.765117  0.00037100
  7       2.051006  1.05365400
  8       1.048648  0.65865100
  9       0.550231  -4.72226800
 10       0.303840  5.40799300
 11       0.165809  -2.00216600
 12       0.060419  -0.71482200
 13       0.024751  0.92680100
P  1
  1       0.024751  1.00000000
D  11
  1      60.996829  0.00005600
  2      22.097637  0.00505400
  3      10.186744  0.03222300
  4       4.633892  0.08247900
  5       2.146927  0.15936300
  6       1.014536  0.22860400
  7       0.487206  0.24369100
  8       0.248191  0.23165100
  9       0.131273  0.19543100
 10       0.063714  0.21458900
 11       0.021542  0.07411300
D  11
  1      60.996829  -0.00007200
  2      22.097637  -0.00607900
  3      10.186744  -0.03905400
  4       4.633892  -0.10065200
  5       2.146927  -0.19433000
  6       1.014536  -0.25355600
  7       0.487206  -0.21355600
  8       0.248191  0.05418200
  9       0.131273  0.26118800
 10       0.063714  0.52021500
 11       0.021542  0.16690700
D  11
  1      60.996829  0.00005400
  2      22.097637  0.00819500
  3      10.186744  0.05007300
  4       4.633892  0.13617400
  5       2.146927  0.24651600
  6       1.014536  0.25815800
  7       0.487206  -0.12479900
  8       0.248191  -0.43908100
  9       0.131273  -0.47534700
 10       0.063714  0.52718700
 11       0.021542  0.47337300
D  11
  1      60.996829  -0.00013200
  2      22.097637  -0.01019500
  3      10.186744  -0.06681500
  4       4.633892  -0.17925500
  5       2.146927  -0.33873300
  6       1.014536  -0.14578400
  7       0.487206  0.70044400
  8       0.248191  0.51197600
  9       0.131273  -1.01912300
 10       0.063714  -0.09222100
 11       0.021542  0.69667500
D  1
  1       0.021542  1.00000000
F  1
  1       0.121673  1.00000000
F  1
  1       0.423707  1.00000000
F  1
  1       1.475494  1.00000000
G  1
  1       0.318017  1.00000000
G  1
  1       0.652356  1.00000000
S  1
  1       2.944740  1.00000000
S  1
  1       3.520437  1.00000000
P  1
  1       1.079934  1.00000000
P  1
  1       3.608023  1.00000000
D  1
  1       1.246811  1.00000000
D  1
  1       2.093727  1.00000000
F  1
  1       3.174444  1.00000000
G  1
  1       2.256684  1.00000000

 $END

 $ECP
Sc-ccECP GEN 10 2
4
   11.00000000 1 16.02394388
  176.26338271 3 14.08647403
  -83.68149599 2 11.93985121
    0.43282764 2  3.69440111
2
  153.96530175 2 11.49466541
   14.93675657 2  5.01031394
2
   97.21725690 2 11.45126730
   10.81704018 2  4.76798446
 $END

 $VEC   
 1  1 9.99743085E-01 8.40212666E-03 6.95873651E-03 4.96239746E-03 1.69580746E-03
 1  2-8.29467670E-04 0.00000000E+00 0.00000000E+00 0.00000000E+00 0.00000000E+00
 1  3 0.00000000E+00 0.00000000E+00 0.00000000E+00 0.00000000E+00 0.00000000E+00
 1  4 0.00000000E+00 0.00000000E+00 0.00000000E+00 0.00000000E+00 0.00000000E+00
 1  5 0.00000000E+00 0.00000000E+00 0.00000000E+00 0.00000000E+00-3.52893872E-03
 1  6-3.52893872E-03 7.05787744E-03 0.00000000E+00 0.00000000E+00 0.00000000E+00
 1  7 2.34926855E-03 2.34926855E-03-4.69853709E-03 0.00000000E+00 0.00000000E+00
 1  8 0.00000000E+00-1.29923234E-03-1.29923234E-03 2.59846468E-03 0.00000000E+00
 1  9 0.00000000E+00 0.00000000E+00-2.90193666E-05-2.90193666E-05 5.80387333E-05
 1 10 0.00000000E+00 0.00000000E+00 0.00000000E+00 5.60529108E-04 5.60529108E-04
 1 11-1.12105822E-03 0.00000000E+00 0.00000000E+00 0.00000000E+00 0.00000000E+00
 1 12 0.00000000E+00 0.00000000E+00 0.00000000E+00 0.00000000E+00 0.00000000E+00
 1 13 0.00000000E+00 0.00000000E+00 0.00000000E+00 0.00000000E+00 0.00000000E+00
 1 14 0.00000000E+00 0.00000000E+00 0.00000000E+00 0.00000000E+00 0.00000000E+00
 1 15 0.00000000E+00 0.00000000E+00 0.00000000E+00 0.00000000E+00 0.00000000E+00
 1 16 0.00000000E+00 0.00000000E+00 0.00000000E+00 0.00000000E+00 0.00000000E+00
 1 17 0.00000000E+00 0.00000000E+00 0.00000000E+00 0.00000000E+00 8.03475821E-04
 1 18 8.03475821E-04 1.54132241E-04 0.00000000E+00 0.00000000E+00 0.00000000E+00
 1 19 0.00000000E+00 0.00000000E+00 0.00000000E+00-1.27602590E-03-1.35375899E-04
 1 20-1.35375899E-04 0.00000000E+00 0.00000000E+00 0.00000000E+00 1.03947944E-03
 1 21 1.03947944E-03 2.56481706E-04 0.00000000E+00 0.00000000E+00 0.00000000E+00
 1 22 0.00000000E+00 0.00000000E+00 0.00000000E+00-1.60070004E-03-2.25270464E-04
 1 23-2.25270464E-04 0.00000000E+00 0.00000000E+00 0.00000000E+00 3.15932947E-03
 1 24-2.77274500E-03 0.00000000E+00 0.00000000E+00 0.00000000E+00 0.00000000E+00
 1 25 0.00000000E+00 0.00000000E+00-1.87799010E-03-1.87799010E-03 3.75598020E-03
 1 26 0.00000000E+00 0.00000000E+00 0.00000000E+00-8.18749200E-05-8.18749200E-05
 1 27 1.63749840E-04 0.00000000E+00 0.00000000E+00 0.00000000E+00 0.00000000E+00
 1 28 0.00000000E+00 0.00000000E+00 0.00000000E+00 0.00000000E+00 0.00000000E+00
 1 29 0.00000000E+00 0.00000000E+00 0.00000000E+00 0.00000000E+00 4.32632018E-04
 1 30 4.32632018E-04 1.23090037E-04 0.00000000E+00 0.00000000E+00 0.00000000E+00
 1 31 0.00000000E+00 0.00000000E+00 0.00000000E+00-6.51858894E-04-1.08111218E-04
 1 32-1.08111218E-04 0.00000000E+00 0.00000000E+00 0.00000000E+00
 2  1 0.00000000E+00 0.00000000E+00 0.00000000E+00 0.00000000E+00 0.00000000E+00
 2  2 0.00000000E+00 0.00000000E+00 0.00000000E+00 9.99602288E-01 0.00000000E+00
 2  3 0.00000000E+00 3.18267757E-02 0.00000000E+00 0.00000000E+00 3.07325689E-02
 2  4 0.00000000E+00 0.00000000E+00 8.17401557E-03 0.00000000E+00 0.00000000E+00
 2  5-1.44078394E-03 0.00000000E+00 0.00000000E+00-5.95384152E-03 0.00000000E+00
 2  6 0.00000000E+00 0.00000000E+00 0.00000000E+00 0.00000000E+00 0.00000000E+00
 2  7 0.00000000E+00 0.00000000E+00 0.00000000E+00 0.00000000E+00 0.00000000E+00
 2  8 0.00000000E+00 0.00000000E+00 0.00000000E+00 0.00000000E+00 0.00000000E+00
 2  9 0.00000000E+00 0.00000000E+00 0.00000000E+00 0.00000000E+00 0.00000000E+00
 2 10 0.00000000E+00 0.00000000E+00 0.00000000E+00 0.00000000E+00 0.00000000E+00
 2 11 0.00000000E+00 0.00000000E+00 0.00000000E+00 0.00000000E+00 0.00000000E+00
 2 12 0.00000000E+00-3.90283241E-04 0.00000000E+00 2.61809957E-04 0.00000000E+00
 2 13 2.61809957E-04 0.00000000E+00 0.00000000E+00 0.00000000E+00 0.00000000E+00
 2 14 0.00000000E+00 4.94924536E-03 0.00000000E+00-3.32005472E-03 0.00000000E+00
 2 15-3.32005472E-03 0.00000000E+00 0.00000000E+00 0.00000000E+00 0.00000000E+00
 2 16 0.00000000E+00 5.28453536E-03 0.00000000E+00-3.54497409E-03 0.00000000E+00
 2 17-3.54497409E-03 0.00000000E+00 0.00000000E+00 0.00000000E+00 0.00000000E+00
 2 18 0.00000000E+00 0.00000000E+00 0.00000000E+00 0.00000000E+00 0.00000000E+00
 2 19 0.00000000E+00 0.00000000E+00 0.00000000E+00 0.00000000E+00 0.00000000E+00
 2 20 0.00000000E+00 0.00000000E+00 0.00000000E+00 0.00000000E+00 0.00000000E+00
 2 21 0.00000000E+00 0.00000000E+00 0.00000000E+00 0.00000000E+00 0.00000000E+00
 2 22 0.00000000E+00 0.00000000E+00 0.00000000E+00 0.00000000E+00 0.00000000E+00
 2 23 0.00000000E+00 0.00000000E+00 0.00000000E+00 0.00000000E+00 0.00000000E+00
 2 24 0.00000000E+00 0.00000000E+00 0.00000000E+00 1.48311231E-03 0.00000000E+00
 2 25 0.00000000E+00-5.57044023E-04 0.00000000E+00 0.00000000E+00 0.00000000E+00
 2 26 0.00000000E+00 0.00000000E+00 0.00000000E+00 0.00000000E+00 0.00000000E+00
 2 27 0.00000000E+00 0.00000000E+00 0.00000000E+00 0.00000000E+00 0.00000000E+00
 2 28 0.00000000E+00 7.61310655E-04 0.00000000E+00-5.10702713E-04 0.00000000E+00
 2 29-5.10702713E-04 0.00000000E+00 0.00000000E+00 0.00000000E+00 0.00000000E+00
 2 30 0.00000000E+00 0.00000000E+00 0.00000000E+00 0.00000000E+00 0.00000000E+00
 2 31 0.00000000E+00 0.00000000E+00 0.00000000E+00 0.00000000E+00 0.00000000E+00
 2 32 0.00000000E+00 0.00000000E+00 0.00000000E+00 0.00000000E+00
 3  1 0.00000000E+00 0.00000000E+00 0.00000000E+00 0.00000000E+00 0.00000000E+00
 3  2 0.00000000E+00 0.00000000E+00 1.00224397E+00 0.00000000E+00 0.00000000E+00
 3  3 4.02952898E-02 0.00000000E+00 0.00000000E+00 3.41101120E-02 0.00000000E+00
 3  4 0.00000000E+00 7.29669111E-03 0.00000000E+00 0.00000000E+00-1.06506307E-03
 3  5 0.00000000E+00 0.00000000E+00-7.53586638E-03 0.00000000E+00 0.00000000E+00
 3  6 0.00000000E+00 0.00000000E+00 0.00000000E+00 0.00000000E+00 0.00000000E+00
 3  7 0.00000000E+00 0.00000000E+00 0.00000000E+00 0.00000000E+00 0.00000000E+00
 3  8 0.00000000E+00 0.00000000E+00 0.00000000E+00 0.00000000E+00 0.00000000E+00
 3  9 0.00000000E+00 0.00000000E+00 0.00000000E+00 0.00000000E+00 0.00000000E+00
 3 10 0.00000000E+00 0.00000000E+00 0.00000000E+00 0.00000000E+00 0.00000000E+00
 3 11 0.00000000E+00 0.00000000E+00 0.00000000E+00 0.00000000E+00 0.00000000E+00
 3 12 3.33618819E-03 0.00000000E+00-3.20848909E-03 0.00000000E+00 0.00000000E+00
 3 13 0.00000000E+00 0.00000000E+00-1.26747706E-03 0.00000000E+00 0.00000000E+00
 3 14 6.63631405E-03 0.00000000E+00-1.06596929E-02 0.00000000E+00 0.00000000E+00
 3 15 0.00000000E+00 0.00000000E+00 1.75614327E-03 0.00000000E+00 0.00000000E+00
 3 16 1.82095716E-03 0.00000000E+00-5.80456316E-03 0.00000000E+00 0.00000000E+00
 3 17 0.00000000E+00 0.00000000E+00 3.36149277E-03 0.00000000E+00 0.00000000E+00
 3 18 0.00000000E+00 0.00000000E+00 0.00000000E+00 0.00000000E+00 0.00000000E+00
 3 19 0.00000000E+00 0.00000000E+00 0.00000000E+00 0.00000000E+00 0.00000000E+00
 3 20 0.00000000E+00 0.00000000E+00 0.00000000E+00 0.00000000E+00 0.00000000E+00
 3 21 0.00000000E+00 0.00000000E+00 0.00000000E+00 0.00000000E+00 0.00000000E+00
 3 22 0.00000000E+00 0.00000000E+00 0.00000000E+00 0.00000000E+00 0.00000000E+00
 3 23 0.00000000E+00 0.00000000E+00 0.00000000E+00 0.00000000E+00 0.00000000E+00
 3 24 0.00000000E+00 0.00000000E+00-1.90371449E-03 0.00000000E+00 0.00000000E+00
 3 25 3.31407670E-04 0.00000000E+00 0.00000000E+00 0.00000000E+00 0.00000000E+00
 3 26 0.00000000E+00 0.00000000E+00 0.00000000E+00 0.00000000E+00 0.00000000E+00
 3 27 0.00000000E+00 0.00000000E+00 0.00000000E+00 0.00000000E+00 0.00000000E+00
 3 28 1.03833259E-03 0.00000000E+00-1.65078489E-03 0.00000000E+00 0.00000000E+00
 3 29 0.00000000E+00 0.00000000E+00 2.57715531E-04 0.00000000E+00 0.00000000E+00
 3 30 0.00000000E+00 0.00000000E+00 0.00000000E+00 0.00000000E+00 0.00000000E+00
 3 31 0.00000000E+00 0.00000000E+00 0.00000000E+00 0.00000000E+00 0.00000000E+00
 3 32 0.00000000E+00 0.00000000E+00 0.00000000E+00 0.00000000E+00
 4  1 0.00000000E+00 0.00000000E+00 0.00000000E+00 0.00000000E+00 0.00000000E+00
 4  2 0.00000000E+00 1.00224397E+00 0.00000000E+00 0.00000000E+00 4.02952898E-02
 4  3 0.00000000E+00 0.00000000E+00 3.41101120E-02 0.00000000E+00 0.00000000E+00
 4  4 7.29669111E-03 0.00000000E+00 0.00000000E+00-1.06506307E-03 0.00000000E+00
 4  5 0.00000000E+00-7.53586638E-03 0.00000000E+00 0.00000000E+00 0.00000000E+00
 4  6 0.00000000E+00 0.00000000E+00 0.00000000E+00 0.00000000E+00 0.00000000E+00
 4  7 0.00000000E+00 0.00000000E+00 0.00000000E+00 0.00000000E+00 0.00000000E+00
 4  8 0.00000000E+00 0.00000000E+00 0.00000000E+00 0.00000000E+00 0.00000000E+00
 4  9 0.00000000E+00 0.00000000E+00 0.00000000E+00 0.00000000E+00 0.00000000E+00
 4 10 0.00000000E+00 0.00000000E+00 0.00000000E+00 0.00000000E+00 0.00000000E+00
 4 11 0.00000000E+00 0.00000000E+00 0.00000000E+00 0.00000000E+00 3.33618819E-03
 4 12 0.00000000E+00 0.00000000E+00 0.00000000E+00 0.00000000E+00-3.20848909E-03
 4 13 0.00000000E+00-1.26747706E-03 0.00000000E+00 0.00000000E+00 6.63631405E-03
 4 14 0.00000000E+00 0.00000000E+00 0.00000000E+00 0.00000000E+00-1.06596929E-02
 4 15 0.00000000E+00 1.75614327E-03 0.00000000E+00 0.00000000E+00 1.82095716E-03
 4 16 0.00000000E+00 0.00000000E+00 0.00000000E+00 0.00000000E+00-5.80456316E-03
 4 17 0.00000000E+00 3.36149277E-03 0.00000000E+00 0.00000000E+00 0.00000000E+00
 4 18 0.00000000E+00 0.00000000E+00 0.00000000E+00 0.00000000E+00 0.00000000E+00
 4 19 0.00000000E+00 0.00000000E+00 0.00000000E+00 0.00000000E+00 0.00000000E+00
 4 20 0.00000000E+00 0.00000000E+00 0.00000000E+00 0.00000000E+00 0.00000000E+00
 4 21 0.00000000E+00 0.00000000E+00 0.00000000E+00 0.00000000E+00 0.00000000E+00
 4 22 0.00000000E+00 0.00000000E+00 0.00000000E+00 0.00000000E+00 0.00000000E+00
 4 23 0.00000000E+00 0.00000000E+00 0.00000000E+00 0.00000000E+00 0.00000000E+00
 4 24 0.00000000E+00-1.90371449E-03 0.00000000E+00 0.00000000E+00 3.31407670E-04
 4 25 0.00000000E+00 0.00000000E+00 0.00000000E+00 0.00000000E+00 0.00000000E+00
 4 26 0.00000000E+00 0.00000000E+00 0.00000000E+00 0.00000000E+00 0.00000000E+00
 4 27 0.00000000E+00 0.00000000E+00 0.00000000E+00 0.00000000E+00 1.03833259E-03
 4 28 0.00000000E+00 0.00000000E+00 0.00000000E+00 0.00000000E+00-1.65078489E-03
 4 29 0.00000000E+00 2.57715531E-04 0.00000000E+00 0.00000000E+00 0.00000000E+00
 4 30 0.00000000E+00 0.00000000E+00 0.00000000E+00 0.00000000E+00 0.00000000E+00
 4 31 0.00000000E+00 0.00000000E+00 0.00000000E+00 0.00000000E+00 0.00000000E+00
 4 32 0.00000000E+00 0.00000000E+00 0.00000000E+00 0.00000000E+00
 5  1 0.00000000E+00 0.00000000E+00 0.00000000E+00 0.00000000E+00 0.00000000E+00
 5  2 0.00000000E+00 0.00000000E+00 0.00000000E+00 0.00000000E+00 0.00000000E+00
 5  3 0.00000000E+00 0.00000000E+00 0.00000000E+00 0.00000000E+00 0.00000000E+00
 5  4 0.00000000E+00 0.00000000E+00 0.00000000E+00 0.00000000E+00 0.00000000E+00
 5  5 0.00000000E+00 0.00000000E+00 0.00000000E+00 0.00000000E+00 8.71860850E-01
 5  6-8.71860850E-01 0.00000000E+00 0.00000000E+00 0.00000000E+00 0.00000000E+00
 5  7-3.24220417E-02 3.24220417E-02 0.00000000E+00 0.00000000E+00 0.00000000E+00
 5  8 0.00000000E+00-8.11879849E-03 8.11879849E-03 0.00000000E+00 0.00000000E+00
 5  9 0.00000000E+00 0.00000000E+00-3.46535755E-03 3.46535755E-03 0.00000000E+00
 5 10 0.00000000E+00 0.00000000E+00 0.00000000E+00-1.02652049E-02 1.02652049E-02
 5 11 0.00000000E+00 0.00000000E+00 0.00000000E+00 0.00000000E+00 0.00000000E+00
 5 12 0.00000000E+00 0.00000000E+00 0.00000000E+00 0.00000000E+00 0.00000000E+00
 5 13 0.00000000E+00 0.00000000E+00 0.00000000E+00 0.00000000E+00 0.00000000E+00
 5 14 0.00000000E+00 0.00000000E+00 0.00000000E+00 0.00000000E+00 0.00000000E+00
 5 15 0.00000000E+00 0.00000000E+00 0.00000000E+00 0.00000000E+00 0.00000000E+00
 5 16 0.00000000E+00 0.00000000E+00 0.00000000E+00 0.00000000E+00 0.00000000E+00
 5 17 0.00000000E+00 0.00000000E+00 0.00000000E+00 0.00000000E+00-2.13088791E-03
 5 18 2.13088791E-03 0.00000000E+00 0.00000000E+00 0.00000000E+00 0.00000000E+00
 5 19 0.00000000E+00 0.00000000E+00 0.00000000E+00 0.00000000E+00 3.74316060E-03
 5 20-3.74316060E-03 0.00000000E+00 0.00000000E+00 0.00000000E+00-1.28299135E-03
 5 21 1.28299135E-03 0.00000000E+00 0.00000000E+00 0.00000000E+00 0.00000000E+00
 5 22 0.00000000E+00 0.00000000E+00 0.00000000E+00 0.00000000E+00 2.25372843E-03
 5 23-2.25372843E-03 0.00000000E+00 0.00000000E+00 0.00000000E+00 0.00000000E+00
 5 24 0.00000000E+00 0.00000000E+00 0.00000000E+00 0.00000000E+00 0.00000000E+00
 5 25 0.00000000E+00 0.00000000E+00-1.33278458E-03 1.33278458E-03 0.00000000E+00
 5 26 0.00000000E+00 0.00000000E+00 0.00000000E+00-1.07495071E-04 1.07495071E-04
 5 27 0.00000000E+00 0.00000000E+00 0.00000000E+00 0.00000000E+00 0.00000000E+00
 5 28 0.00000000E+00 0.00000000E+00 0.00000000E+00 0.00000000E+00 0.00000000E+00
 5 29 0.00000000E+00 0.00000000E+00 0.00000000E+00 0.00000000E+00-5.62878398E-04
 5 30 5.62878398E-04 0.00000000E+00 0.00000000E+00 0.00000000E+00 0.00000000E+00
 5 31 0.00000000E+00 0.00000000E+00 0.00000000E+00 0.00000000E+00 9.88763525E-04
 5 32-9.88763525E-04 0.00000000E+00 0.00000000E+00 0.00000000E+00
 6  1-1.70712183E-02 9.59181692E-01-7.44898151E-02 3.52840391E-03 5.43173230E-04
 6  2 4.09309094E-02 0.00000000E+00 0.00000000E+00 0.00000000E+00 0.00000000E+00
 6  3 0.00000000E+00 0.00000000E+00 0.00000000E+00 0.00000000E+00 0.00000000E+00
 6  4 0.00000000E+00 0.00000000E+00 0.00000000E+00 0.00000000E+00 0.00000000E+00
 6  5 0.00000000E+00 0.00000000E+00 0.00000000E+00 0.00000000E+00-3.08584455E-02
 6  6-3.08584455E-02 6.17168910E-02 0.00000000E+00 0.00000000E+00 0.00000000E+00
 6  7-1.90055935E-02-1.90055935E-02 3.80111870E-02 0.00000000E+00 0.00000000E+00
 6  8 0.00000000E+00-2.17366437E-04-2.17366437E-04 4.34732874E-04 0.00000000E+00
 6  9 0.00000000E+00 0.00000000E+00 1.01773685E-03 1.01773685E-03-2.03547370E-03
 6 10 0.00000000E+00 0.00000000E+00 0.00000000E+00 1.06753491E-03 1.06753491E-03
 6 11-2.13506983E-03 0.00000000E+00 0.00000000E+00 0.00000000E+00 0.00000000E+00
 6 12 0.00000000E+00 0.00000000E+00 0.00000000E+00 0.00000000E+00 0.00000000E+00
 6 13 0.00000000E+00 0.00000000E+00 0.00000000E+00 0.00000000E+00 0.00000000E+00
 6 14 0.00000000E+00 0.00000000E+00 0.00000000E+00 0.00000000E+00 0.00000000E+00
 6 15 0.00000000E+00 0.00000000E+00 0.00000000E+00 0.00000000E+00 0.00000000E+00
 6 16 0.00000000E+00 0.00000000E+00 0.00000000E+00 0.00000000E+00 0.00000000E+00
 6 17 0.00000000E+00 0.00000000E+00 0.00000000E+00 0.00000000E+00 7.91624798E-04
 6 18 7.91624798E-04 9.49745312E-04 0.00000000E+00 0.00000000E+00 0.00000000E+00
 6 19 0.00000000E+00 0.00000000E+00 0.00000000E+00-5.56413188E-04-8.34170868E-04
 6 20-8.34170868E-04 0.00000000E+00 0.00000000E+00 0.00000000E+00 4.38670864E-04
 6 21 4.38670864E-04 9.94734700E-05 0.00000000E+00 0.00000000E+00 0.00000000E+00
 6 22 0.00000000E+00 0.00000000E+00 0.00000000E+00-6.83209520E-04-8.73685500E-05
 6 23-8.73685500E-05 0.00000000E+00 0.00000000E+00 0.00000000E+00-3.76528577E-03
 6 24 2.34392839E-03 0.00000000E+00 0.00000000E+00 0.00000000E+00 0.00000000E+00
 6 25 0.00000000E+00 0.00000000E+00 4.90434548E-04 4.90434548E-04-9.80869097E-04
 6 26 0.00000000E+00 0.00000000E+00 0.00000000E+00 5.73068495E-05 5.73068495E-05
 6 27-1.14613699E-04 0.00000000E+00 0.00000000E+00 0.00000000E+00 0.00000000E+00
 6 28 0.00000000E+00 0.00000000E+00 0.00000000E+00 0.00000000E+00 0.00000000E+00
 6 29 0.00000000E+00 0.00000000E+00 0.00000000E+00 0.00000000E+00 2.02372759E-04
 6 30 2.02372759E-04 9.46935470E-05 0.00000000E+00 0.00000000E+00 0.00000000E+00
 6 31 0.00000000E+00 0.00000000E+00 0.00000000E+00-2.72321768E-04-8.31702955E-05
 6 32-8.31702955E-05 0.00000000E+00 0.00000000E+00 0.00000000E+00
 7  1 0.00000000E+00 0.00000000E+00 0.00000000E+00 0.00000000E+00 0.00000000E+00
 7  2 0.00000000E+00 0.00000000E+00 0.00000000E+00-5.86659292E-02 0.00000000E+00
 7  3 0.00000000E+00 3.06735531E-01 0.00000000E+00 0.00000000E+00-6.30070928E-04
 7  4 0.00000000E+00 0.00000000E+00-2.44446935E-02 0.00000000E+00 0.00000000E+00
 7  5-1.05699033E-02 0.00000000E+00 0.00000000E+00 7.42438720E-01 0.00000000E+00
 7  6 0.00000000E+00 0.00000000E+00 0.00000000E+00 0.00000000E+00 0.00000000E+00
 7  7 0.00000000E+00 0.00000000E+00 0.00000000E+00 0.00000000E+00 0.00000000E+00
 7  8 0.00000000E+00 0.00000000E+00 0.00000000E+00 0.00000000E+00 0.00000000E+00
 7  9 0.00000000E+00 0.00000000E+00 0.00000000E+00 0.00000000E+00 0.00000000E+00
 7 10 0.00000000E+00 0.00000000E+00 0.00000000E+00 0.00000000E+00 0.00000000E+00
 7 11 0.00000000E+00 0.00000000E+00 0.00000000E+00 0.00000000E+00 0.00000000E+00
 7 12 0.00000000E+00 2.48793949E-02 0.00000000E+00-1.66896055E-02 0.00000000E+00
 7 13-1.66896055E-02 0.00000000E+00 0.00000000E+00 0.00000000E+00 0.00000000E+00
 7 14 0.00000000E+00 1.11841446E-03 0.00000000E+00-7.50255231E-04 0.00000000E+00
 7 15-7.50255231E-04 0.00000000E+00 0.00000000E+00 0.00000000E+00 0.00000000E+00
 7 16 0.00000000E+00-5.31752984E-04 0.00000000E+00 3.56710746E-04 0.00000000E+00
 7 17 3.56710746E-04 0.00000000E+00 0.00000000E+00 0.00000000E+00 0.00000000E+00
 7 18 0.00000000E+00 0.00000000E+00 0.00000000E+00 0.00000000E+00 0.00000000E+00
 7 19 0.00000000E+00 0.00000000E+00 0.00000000E+00 0.00000000E+00 0.00000000E+00
 7 20 0.00000000E+00 0.00000000E+00 0.00000000E+00 0.00000000E+00 0.00000000E+00
 7 21 0.00000000E+00 0.00000000E+00 0.00000000E+00 0.00000000E+00 0.00000000E+00
 7 22 0.00000000E+00 0.00000000E+00 0.00000000E+00 0.00000000E+00 0.00000000E+00
 7 23 0.00000000E+00 0.00000000E+00 0.00000000E+00 0.00000000E+00 0.00000000E+00
 7 24 0.00000000E+00 0.00000000E+00 0.00000000E+00-2.48534174E-02 0.00000000E+00
 7 25 0.00000000E+00 2.61399261E-03 0.00000000E+00 0.00000000E+00 0.00000000E+00
 7 26 0.00000000E+00 0.00000000E+00 0.00000000E+00 0.00000000E+00 0.00000000E+00
 7 27 0.00000000E+00 0.00000000E+00 0.00000000E+00 0.00000000E+00 0.00000000E+00
 7 28 0.00000000E+00-1.07428925E-04 0.00000000E+00 7.20655140E-05 0.00000000E+00
 7 29 7.20655140E-05 0.00000000E+00 0.00000000E+00 0.00000000E+00 0.00000000E+00
 7 30 0.00000000E+00 0.00000000E+00 0.00000000E+00 0.00000000E+00 0.00000000E+00
 7 31 0.00000000E+00 0.00000000E+00 0.00000000E+00 0.00000000E+00 0.00000000E+00
 7 32 0.00000000E+00 0.00000000E+00 0.00000000E+00 0.00000000E+00
 8  1 0.00000000E+00 0.00000000E+00 0.00000000E+00 0.00000000E+00 0.00000000E+00
 8  2 0.00000000E+00-6.72837016E-02 0.00000000E+00 0.00000000E+00 1.41075103E-01
 8  3 0.00000000E+00 0.00000000E+00 3.11024570E-02 0.00000000E+00 0.00000000E+00
 8  4-4.05211346E-02 0.00000000E+00 0.00000000E+00-1.56753931E-02 0.00000000E+00
 8  5 0.00000000E+00 9.12567905E-01 0.00000000E+00 0.00000000E+00 0.00000000E+00
 8  6 0.00000000E+00 0.00000000E+00 0.00000000E+00 0.00000000E+00 0.00000000E+00
 8  7 0.00000000E+00 0.00000000E+00 0.00000000E+00 0.00000000E+00 0.00000000E+00
 8  8 0.00000000E+00 0.00000000E+00 0.00000000E+00 0.00000000E+00 0.00000000E+00
 8  9 0.00000000E+00 0.00000000E+00 0.00000000E+00 0.00000000E+00 0.00000000E+00
 8 10 0.00000000E+00 0.00000000E+00 0.00000000E+00 0.00000000E+00 0.00000000E+00
 8 11 0.00000000E+00 0.00000000E+00 0.00000000E+00 0.00000000E+00-3.00981695E-03
 8 12 0.00000000E+00 0.00000000E+00 0.00000000E+00 0.00000000E+00-1.39749670E-02
 8 13 0.00000000E+00 1.80130602E-02 0.00000000E+00 0.00000000E+00 2.36094379E-03
 8 14 0.00000000E+00 0.00000000E+00 0.00000000E+00 0.00000000E+00-2.99642999E-03
 8 15 0.00000000E+00-1.71108497E-04 0.00000000E+00 0.00000000E+00 6.72621164E-04
 8 16 0.00000000E+00 0.00000000E+00 0.00000000E+00 0.00000000E+00-3.55612579E-04
 8 17 0.00000000E+00-5.46803408E-04 0.00000000E+00 0.00000000E+00 0.00000000E+00
 8 18 0.00000000E+00 0.00000000E+00 0.00000000E+00 0.00000000E+00 0.00000000E+00
 8 19 0.00000000E+00 0.00000000E+00 0.00000000E+00 0.00000000E+00 0.00000000E+00
 8 20 0.00000000E+00 0.00000000E+00 0.00000000E+00 0.00000000E+00 0.00000000E+00
 8 21 0.00000000E+00 0.00000000E+00 0.00000000E+00 0.00000000E+00 0.00000000E+00
 8 22 0.00000000E+00 0.00000000E+00 0.00000000E+00 0.00000000E+00 0.00000000E+00
 8 23 0.00000000E+00 0.00000000E+00 0.00000000E+00 0.00000000E+00 0.00000000E+00
 8 24 0.00000000E+00-3.47918281E-02 0.00000000E+00 0.00000000E+00 3.81120766E-03
 8 25 0.00000000E+00 0.00000000E+00 0.00000000E+00 0.00000000E+00 0.00000000E+00
 8 26 0.00000000E+00 0.00000000E+00 0.00000000E+00 0.00000000E+00 0.00000000E+00
 8 27 0.00000000E+00 0.00000000E+00 0.00000000E+00 0.00000000E+00 1.30887975E-05
 8 28 0.00000000E+00 0.00000000E+00 0.00000000E+00 0.00000000E+00 7.31897277E-05
 8 29 0.00000000E+00-9.07501922E-05 0.00000000E+00 0.00000000E+00 0.00000000E+00
 8 30 0.00000000E+00 0.00000000E+00 0.00000000E+00 0.00000000E+00 0.00000000E+00
 8 31 0.00000000E+00 0.00000000E+00 0.00000000E+00 0.00000000E+00 0.00000000E+00
 8 32 0.00000000E+00 0.00000000E+00 0.00000000E+00 0.00000000E+00
 9  1 0.00000000E+00 0.00000000E+00 0.00000000E+00 0.00000000E+00 0.00000000E+00
 9  2 0.00000000E+00 0.00000000E+00-6.72837016E-02 0.00000000E+00 0.00000000E+00
 9  3 1.41075103E-01 0.00000000E+00 0.00000000E+00 3.11024570E-02 0.00000000E+00
 9  4 0.00000000E+00-4.05211346E-02 0.00000000E+00 0.00000000E+00-1.56753931E-02
 9  5 0.00000000E+00 0.00000000E+00 9.12567905E-01 0.00000000E+00 0.00000000E+00
 9  6 0.00000000E+00 0.00000000E+00 0.00000000E+00 0.00000000E+00 0.00000000E+00
 9  7 0.00000000E+00 0.00000000E+00 0.00000000E+00 0.00000000E+00 0.00000000E+00
 9  8 0.00000000E+00 0.00000000E+00 0.00000000E+00 0.00000000E+00 0.00000000E+00
 9  9 0.00000000E+00 0.00000000E+00 0.00000000E+00 0.00000000E+00 0.00000000E+00
 9 10 0.00000000E+00 0.00000000E+00 0.00000000E+00 0.00000000E+00 0.00000000E+00
 9 11 0.00000000E+00 0.00000000E+00 0.00000000E+00 0.00000000E+00 0.00000000E+00
 9 12-3.00981695E-03 0.00000000E+00-1.39749670E-02 0.00000000E+00 0.00000000E+00
 9 13 0.00000000E+00 0.00000000E+00 1.80130602E-02 0.00000000E+00 0.00000000E+00
 9 14 2.36094379E-03 0.00000000E+00-2.99642999E-03 0.00000000E+00 0.00000000E+00
 9 15 0.00000000E+00 0.00000000E+00-1.71108497E-04 0.00000000E+00 0.00000000E+00
 9 16 6.72621164E-04 0.00000000E+00-3.55612579E-04 0.00000000E+00 0.00000000E+00
 9 17 0.00000000E+00 0.00000000E+00-5.46803408E-04 0.00000000E+00 0.00000000E+00
 9 18 0.00000000E+00 0.00000000E+00 0.00000000E+00 0.00000000E+00 0.00000000E+00
 9 19 0.00000000E+00 0.00000000E+00 0.00000000E+00 0.00000000E+00 0.00000000E+00
 9 20 0.00000000E+00 0.00000000E+00 0.00000000E+00 0.00000000E+00 0.00000000E+00
 9 21 0.00000000E+00 0.00000000E+00 0.00000000E+00 0.00000000E+00 0.00000000E+00
 9 22 0.00000000E+00 0.00000000E+00 0.00000000E+00 0.00000000E+00 0.00000000E+00
 9 23 0.00000000E+00 0.00000000E+00 0.00000000E+00 0.00000000E+00 0.00000000E+00
 9 24 0.00000000E+00 0.00000000E+00-3.47918281E-02 0.00000000E+00 0.00000000E+00
 9 25 3.81120766E-03 0.00000000E+00 0.00000000E+00 0.00000000E+00 0.00000000E+00
 9 26 0.00000000E+00 0.00000000E+00 0.00000000E+00 0.00000000E+00 0.00000000E+00
 9 27 0.00000000E+00 0.00000000E+00 0.00000000E+00 0.00000000E+00 0.00000000E+00
 9 28 1.30887975E-05 0.00000000E+00 7.31897277E-05 0.00000000E+00 0.00000000E+00
 9 29 0.00000000E+00 0.00000000E+00-9.07501922E-05 0.00000000E+00 0.00000000E+00
 9 30 0.00000000E+00 0.00000000E+00 0.00000000E+00 0.00000000E+00 0.00000000E+00
 9 31 0.00000000E+00 0.00000000E+00 0.00000000E+00 0.00000000E+00 0.00000000E+00