 $CONTRL 
     SCFTYP=ROHF 
     MULT=2
     ICHARG=0 
     RUNTYP=ENERGY
     MAXIT=150
     ECP=READ
     ISPHER=1
 $END

 $SYSTEM 
     KDIAG=3
 $END

 $GUESS
    GUESS=HUCKEL
 $END


 $DATA  

Dnh, 2

K 19    0. 0. 0.
S  13
  1      33.190598  0.00093460
  2      17.266513  -0.01746080
  3       8.982438  0.15299840
  4       4.672871  -0.34050680
  5       2.430935  -0.22863440
  6       1.264628  0.22672980
  7       0.657889  0.54910420
  8       0.342249  0.42310450
  9       0.178046  0.09104080
 10       0.092623  0.00345520
 11       0.048185  -0.00028370
 12       0.025067  0.00055460
 13       0.013040  0.00000310
S  13
  1      33.190598  -0.00013550
  2      17.266513  0.00327580
  3       8.982438  -0.03127550
  4       4.672871  0.07304500
  5       2.430935  0.04905170
  6       1.264628  -0.05320270
  7       0.657889  -0.13678160
  8       0.342249  -0.16629980
  9       0.178046  -0.15469740
 10       0.092623  0.00178980
 11       0.048185  0.40887000
 12       0.025067  0.56715150
 13       0.013040  0.18420760
P  12
  1      25.955983  0.00005310
  2      12.863527  0.00359740
  3       6.375036  -0.04058580
  4       3.159405  -0.04220760
  5       1.565770  0.20965770
  6       0.775980  0.39509450
  7       0.384568  0.37504360
  8       0.190588  0.15682480
  9       0.094453  0.01966940
 10       0.046810  0.00125380
 11       0.023199  0.00029050
 12       0.011497  -0.00000980
P  12
  1      25.955983  -0.00001130
  2      12.863527  -0.00050130
  3       6.375036  0.00601080
  4       3.159405  0.00570550
  5       1.565770  -0.03288980
  6       0.775980  -0.05912520
  7       0.384568  -0.06798030
  8       0.190588  -0.04852530
  9       0.094453  0.02182800
 10       0.046810  0.27827650
 11       0.023199  0.48640440
 12       0.011497  0.31832720
D  11
  1      25.002828  0.00002860
  2      10.959775  -0.00030190
  3       4.804124  0.00482980
  4       2.105846  0.01402200
  5       0.923080  0.02589140
  6       0.404624  0.03605440
  7       0.177364  0.04862730
  8       0.077746  0.10242950
  9       0.034079  0.28114010
 10       0.014938  0.51238900
 11       0.006548  0.25265610
S  1
  1       0.050743  1.00000000
S  1
  1       0.028652  1.00000000
S  1
  1       0.014567  1.00000000
P  1
  1       0.058128  1.00000000
P  1
  1       0.025506  1.00000000
P  1
  1       0.011168  1.00000000
D  1
  1       0.062984  1.00000000
D  1
  1       0.017874  1.00000000
F  1
  1       0.090998  1.00000000
S  1
  1       0.525794  1.00000000
S  1
  1       0.826425  1.00000000
S  1
  1       1.298947  1.00000000
P  1
  1       0.284427  1.00000000
P  1
  1       0.688784  1.00000000
P  1
  1       1.667996  1.00000000
D  1
  1       0.596005  1.00000000
D  1
  1       1.807110  1.00000000
F  1
  1       1.177364  1.00000000

 $END

 $ECP
K-ccECP GEN 10 2
4
 9.000              1 7.27386331637373
 65.46476984736357  3 11.1729834540799
-10.84433558416271  2 7.70617523948938
-15.96316084113368  2 5.62491694962345
2
 11.86687269408012  2 11.4425076498453
 90.07677060151201  2 6.53712447768095
2
 11.53420167311457  2 9.63121897030662
 27.72023517356577  2 4.50881062128081
 $END


