 $CONTRL 
     SCFTYP=ROHF 
     MULT=2
     ICHARG=0 
     RUNTYP=ENERGY
     MAXIT=150
     ECP=READ
     ISPHER=1
 $END

 $SYSTEM 
     KDIAG=3
 $END

 $GUESS
    GUESS=HUCKEL
 $END


 $DATA  

C1
Cl 17    0. 0. 0.
S  10
  1 15.583847  0.002501
  2  8.858485 -0.010046
  3  5.035519  0.085810
  4  2.862391 -0.290136
  5  1.627098 -0.140314
  6  0.924908  0.146839
  7  0.525755  0.392484
  8  0.298860  0.425061
  9  0.169884  0.227195
 10  0.096569  0.059828
S   1                     
  1  0.648040  1.000000
P  10                     
  1  7.682894 -0.004609  
  2  4.507558 -0.001798
  3  2.644587 -0.068614
  4  1.551581  0.062352
  5  0.910313  0.166337
  6  0.534081  0.282292
  7  0.313346  0.275967
  8  0.183840  0.241328
  9  0.107859  0.110223
 10  0.063281  0.040289
P   1                     
  1  0.633351  1.000000
D   1                     
  1  0.633222  1.000000

 $END

 $ECP
Cl-ccECP GEN 10 2
3
7.000000   1 7.944352  
55.610463  3 12.801261 
-22.86078  2 6.296744  
2
15.839234  2 17.908432 
44.469504  2 4.159880  
2
8.321946   2 7.931763  
24.044745  2 3.610412  
 $END


