 $CONTRL 
     SCFTYP=ROHF 
     MULT=5
     ICHARG=0 
     RUNTYP=ENERGY
     MAXIT=150
     ECP=READ
     ISPHER=1
 $END

 $SYSTEM 
     KDIAG=3
     MWORDS=1000
 $END

 $SCF
     DIRSCF=.t. 
     DIIS=.t. 
     DAMP=.t. 
     SHIFT=.t.
     RSTRCT=.t.
 $END


 $GUESS
!    GUESS=HUCKEL
    GUESS=MOREAD
    NORB=10
    NORDER=1
    IORDER(5)=7,5,6,8,9,10
 $END


 $DATA  

C1
Fe 26 0.0 0.0 0.0
s 13 1.000
1 84.322332 0.000785
2 44.203528 -0.012781
3 23.288963 0.104635
4 13.385163 -0.119385
5 7.518052 -0.339804
6 4.101835 -0.049994
7 2.253571 0.476955
8 1.134924 0.593222
9 0.561550 0.200151
10 0.201961 0.008591
11 0.108698 -0.002188
12 0.053619 0.000677
13 0.025823 -0.000144
s 13 1.000
1 84.322332 -0.000162
2 44.203528 0.002921
3 23.288963 -0.025466
4 13.385163 0.031182
5 7.518052 0.086849
6 4.101835 0.006846
7 2.253571 -0.131856
8 1.134924 -0.227746
9 0.561550 -0.173079
10 0.201961 0.136142
11 0.108698 0.434013
12 0.053619 0.477555
13 0.025823 0.128804
s 13 1.000
1 84.322332 0.000002
2 44.203528 0.004103
3 23.288963 -0.046840
4 13.385163 0.052833
5 7.518052 0.218094
6 4.101835 -0.044999
7 2.253571 -0.287386
8 1.134924 -0.713220
9 0.561550 0.249174
10 0.201961 1.299872
11 0.108698 0.192119
12 0.053619 -0.658616
13 0.025823 -0.521047
s 13 1.000
1 84.322332 0.000012
2 44.203528 0.007598
3 23.288963 -0.094133
4 13.385163 0.127655
5 7.518052 0.435598
6 4.101835 -0.147911
7 2.253571 -1.084477
8 1.134924 -0.887003
9 0.561550 2.449946
10 0.201961 0.167976
11 0.108698 -2.114668
12 0.053619 0.452579
13 0.025823 0.801444
s 13 1.000
1 84.322332 0.003301
2 44.203528 -0.029197
3 23.288963 0.213227
4 13.385163 -0.408109
5 7.518052 -0.385651
6 4.101835 0.168093
7 2.253571 3.102529
8 1.134924 -3.360446
9 0.561550 -0.531619
10 0.201961 4.493981
11 0.108698 -3.689750
12 0.053619 -0.510604
13 0.025823 1.301021
s 13 1.000
1 84.322332 -0.001298
2 44.203528 -0.005538
3 23.288963 0.184080
4 13.385163 -0.339165
5 7.518052 -1.460839
6 4.101835 3.382303
7 2.253571 0.843277
8 1.134924 -7.017371
9 0.561550 7.291372
10 0.201961 -4.246680
11 0.108698 0.089576
12 0.053619 3.226924
13 0.025823 -1.929719
s 1 1.000
1 0.025823 1.0
s 1 1.000
1 0.012 1.0
p 13 1.000
1 125.092775 0.000056
2 65.211589 -0.000572
3 34.437599 0.007388
4 18.930704 -0.028481
5 10.873415 -0.063005
6 6.012172 0.024855
7 3.372205 0.277474
8 1.768641 0.425386
9 0.914516 0.314145
10 0.460895 0.090422
11 0.204490 0.006977
12 0.074741 0.001154
13 0.035671 0.000303
p 13 1.000
1 125.092775 0.000025
2 65.211589 -0.000070
3 34.437599 -0.001042
4 18.930704 0.005127
5 10.873415 0.018404
6 6.012172 -0.014692
7 3.372205 -0.061307
8 1.768641 -0.128638
9 0.914516 -0.070637
10 0.460895 -0.016314
11 0.204490 0.380702
12 0.074741 0.523071
13 0.035671 0.235765
p 13 1.000
1 125.092775 -0.000197
2 65.211589 0.001251
3 34.437599 -0.009154
4 18.930704 0.038201
5 10.873415 0.043097
6 6.012172 -0.029475
7 3.372205 -0.426996
8 1.768641 -0.394840
9 0.914516 0.077230
10 0.460895 1.119881
11 0.204490 -0.066494
12 0.074741 -0.721583
13 0.035671 -0.005695
p 13 1.000
1 125.092775 0.000264
2 65.211589 -0.001076
3 34.437599 -0.002591
4 18.930704 0.035519
5 10.873415 0.119554
6 6.012172 -0.204714
7 3.372205 -0.760627
8 1.768641 -0.262740
9 0.914516 1.779030
10 0.460895 -0.462742
11 0.204490 -1.241030
12 0.074741 0.940987
13 0.035671 0.083496
p 13 1.000
1 125.092775 -0.000084
2 65.211589 0.000768
3 34.437599 -0.009485
4 18.930704 0.088062
5 10.873415 0.156191
6 6.012172 -0.619166
7 3.372205 -1.385534
8 1.768641 2.492125
9 0.914516 0.008076
10 0.460895 -2.499515
11 0.204490 2.265576
12 0.074741 -0.748342
13 0.035671 -0.211598
p 13 1.000
1 125.092775 -0.002544
2 65.211589 0.013040
3 34.437599 -0.039444
4 18.930704 -0.024594
5 10.873415 -0.521571
6 6.012172 2.739993
7 3.372205 -1.742649
8 1.768641 -2.844006
9 0.914516 5.870826
10 0.460895 -4.902306
11 0.204490 2.136176
12 0.074741 -0.121626
13 0.035671 -0.486219
p 1 1.000
1 0.035671 1.0
p 1 1.000
1 0.017 1.0
d 11 1.000
1 152.736742 0.000029
2 50.772485 0.005238
3 26.253589 0.029325
4 12.137022 0.074901
5 5.853719 0.163411
6 2.856224 0.251057
7 1.386132 0.287603
8 0.670802 0.251862
9 0.330280 0.186736
10 0.170907 0.093570
11 0.086794 0.073811
d 11 1.000
1 152.736742 -0.000026
2 50.772485 -0.006329
3 26.253589 -0.034398
4 12.137022 -0.091765
5 5.853719 -0.201592
6 2.856224 -0.283930
7 1.386132 -0.161981
8 0.670802 0.128822
9 0.330280 0.360160
10 0.170907 0.277592
11 0.086794 0.261403
d 11 1.000
1 152.736742 0.000051
2 50.772485 0.008769
3 26.253589 0.047921
4 12.137022 0.132475
5 5.853719 0.297279
6 2.856224 0.275018
7 1.386132 -0.222842
8 0.670802 -0.619067
9 0.330280 -0.076290
10 0.170907 0.256056
11 0.086794 0.541482
d 11 1.000
1 152.736742 -0.000096
2 50.772485 -0.012144
3 26.253589 -0.066971
4 12.137022 -0.196025
5 5.853719 -0.469003
6 2.856224 0.046560
7 1.386132 0.985940
8 0.670802 -0.220435
9 0.330280 -0.752482
10 0.170907 -0.111123
11 0.086794 0.753100
d 11 1.000
1 152.736742 -0.000032
2 50.772485 -0.016411
3 26.253589 -0.081036
4 12.137022 -0.292641
5 5.853719 -0.575819
6 2.856224 1.151156
7 1.386132 0.168963
8 0.670802 -1.489545
9 0.330280 0.741536
10 0.170907 0.979279
11 0.086794 -1.044905
d 1 1.000
1 0.086794 1.0
d 1 1.000
1 0.04 1.0
f 1 1.000
1 0.115778 1.0
f 1 1.000
1 0.334367 1.0
f 1 1.000
1 0.96565 1.0
f 1 1.000
1 2.788793 1.0
f 1 1.000
1 8.05402 1.0
g 1 1.000
1 0.227726 1.0
g 1 1.000
1 0.673444 1.0
g 1 1.000
1 1.99155 1.0
g 1 1.000
1 5.889532 1.0
S  1
  1       3.436892  1.00000000
P  1
  1       3.524160  1.00000000
P  1
  1       8.838502  1.00000000
D  1
  1       5.581935  1.00000000
F  1
  1       4.252984  1.00000000
G  1
  1       4.726458  1.00000000

 $END

 $ECP
Fe-ccECP GEN 10 2
4
16.0 1 23.2209171361
371.534674178 3 23.5471467972
-181.226034452 2 23.4725634461
-2.3730523614 2 9.85238815041
2
277.500325475 2 22.2106269743
46.2049558527 2 9.51515800919
2
194.998750566 2 24.5700087185
31.6794513291 2 8.86648776669
 $END

 $VEC   
 1  1 9.99840917E-01 5.23461809E-03 6.33128702E-03 3.41725520E-03-4.11952522E-04
 1  2 5.39542862E-04 9.38603768E-04 1.98521976E-04 0.00000000E+00 0.00000000E+00
 1  3 0.00000000E+00 0.00000000E+00 0.00000000E+00 0.00000000E+00 0.00000000E+00
 1  4 0.00000000E+00 0.00000000E+00 0.00000000E+00 0.00000000E+00 0.00000000E+00
 1  5 0.00000000E+00 0.00000000E+00 0.00000000E+00 0.00000000E+00 0.00000000E+00
 1  6 0.00000000E+00 0.00000000E+00 0.00000000E+00 0.00000000E+00 0.00000000E+00
 1  7 0.00000000E+00 0.00000000E+00 0.00000000E+00 0.00000000E+00 0.00000000E+00
 1  8 0.00000000E+00 0.00000000E+00 0.00000000E+00 0.00000000E+00 0.00000000E+00
 1  9 0.00000000E+00 0.00000000E+00 0.00000000E+00 0.00000000E+00 0.00000000E+00
 1 10 0.00000000E+00 0.00000000E+00 0.00000000E+00 0.00000000E+00 0.00000000E+00
 1 11 0.00000000E+00 0.00000000E+00 0.00000000E+00 0.00000000E+00 0.00000000E+00
 1 12 0.00000000E+00 0.00000000E+00 0.00000000E+00 0.00000000E+00 0.00000000E+00
 1 13 0.00000000E+00 0.00000000E+00 0.00000000E+00 0.00000000E+00 0.00000000E+00
 1 14 0.00000000E+00 0.00000000E+00 0.00000000E+00 0.00000000E+00 0.00000000E+00
 1 15 0.00000000E+00 0.00000000E+00 0.00000000E+00 0.00000000E+00 0.00000000E+00
 1 16 0.00000000E+00 0.00000000E+00 0.00000000E+00 0.00000000E+00 0.00000000E+00
 1 17 0.00000000E+00 0.00000000E+00 0.00000000E+00 0.00000000E+00 0.00000000E+00
 1 18 0.00000000E+00 0.00000000E+00 0.00000000E+00 0.00000000E+00 0.00000000E+00
 1 19 0.00000000E+00 0.00000000E+00 0.00000000E+00 0.00000000E+00 0.00000000E+00
 1 20 0.00000000E+00 0.00000000E+00 0.00000000E+00 0.00000000E+00 0.00000000E+00
 1 21 0.00000000E+00 0.00000000E+00 0.00000000E+00 0.00000000E+00 0.00000000E+00
 1 22 0.00000000E+00 0.00000000E+00 0.00000000E+00 0.00000000E+00 0.00000000E+00
 1 23 0.00000000E+00 0.00000000E+00 0.00000000E+00 0.00000000E+00 0.00000000E+00
 1 24 0.00000000E+00 0.00000000E+00 0.00000000E+00 0.00000000E+00 0.00000000E+00
 1 25 0.00000000E+00 0.00000000E+00 0.00000000E+00 0.00000000E+00 5.89676329E-05
 1 26 5.89676329E-05 5.89676301E-05 0.00000000E+00 0.00000000E+00 0.00000000E+00
 1 27 0.00000000E+00 0.00000000E+00 0.00000000E+00-5.17918680E-05-5.17918631E-05
 1 28-5.17918631E-05 0.00000000E+00 0.00000000E+00 0.00000000E+00 6.37362263E-04
 1 29 6.37362263E-04 6.37362263E-04 0.00000000E+00 0.00000000E+00 0.00000000E+00
 1 30 0.00000000E+00 0.00000000E+00 0.00000000E+00-5.59801691E-04-5.59801691E-04
 1 31-5.59801691E-04 0.00000000E+00 0.00000000E+00 0.00000000E+00 6.53410020E-04
 1 32 6.53410020E-04 6.53410020E-04 0.00000000E+00 0.00000000E+00 0.00000000E+00
 1 33 0.00000000E+00 0.00000000E+00 0.00000000E+00-5.73896598E-04-5.73896598E-04
 1 34-5.73896598E-04 0.00000000E+00 0.00000000E+00 0.00000000E+00 4.97267139E-04
 1 35 4.97267139E-04 4.97267139E-04 0.00000000E+00 0.00000000E+00 0.00000000E+00
 1 36 0.00000000E+00 0.00000000E+00 0.00000000E+00-4.36754733E-04-4.36754733E-04
 1 37-4.36754733E-04 0.00000000E+00 0.00000000E+00 0.00000000E+00-3.49954995E-05
 1 38 0.00000000E+00 0.00000000E+00 0.00000000E+00 0.00000000E+00 0.00000000E+00
 1 39 0.00000000E+00 0.00000000E+00 0.00000000E+00 0.00000000E+00 0.00000000E+00
 1 40 0.00000000E+00 0.00000000E+00 0.00000000E+00 0.00000000E+00 0.00000000E+00
 1 41 0.00000000E+00 0.00000000E+00 0.00000000E+00 0.00000000E+00 0.00000000E+00
 1 42 0.00000000E+00 0.00000000E+00-3.53830931E-04-3.53830931E-04-3.53830931E-04
 1 43 0.00000000E+00 0.00000000E+00 0.00000000E+00 0.00000000E+00 0.00000000E+00
 1 44 0.00000000E+00 3.10773269E-04 3.10773268E-04 3.10773268E-04 0.00000000E+00
 1 45 0.00000000E+00 0.00000000E+00
 2  1 0.00000000E+00 0.00000000E+00 0.00000000E+00 0.00000000E+00 0.00000000E+00
 2  2 0.00000000E+00 0.00000000E+00 0.00000000E+00 0.00000000E+00 0.00000000E+00
 2  3 9.99080874E-01 0.00000000E+00 0.00000000E+00 2.76085295E-02 0.00000000E+00
 2  4 0.00000000E+00 2.31179981E-02 0.00000000E+00 0.00000000E+00 7.75394970E-04
 2  5 0.00000000E+00 0.00000000E+00-1.24233220E-03 0.00000000E+00 0.00000000E+00
 2  6 1.47773565E-04 0.00000000E+00 0.00000000E+00-6.92193681E-03 0.00000000E+00
 2  7 0.00000000E+00 8.69623316E-06 0.00000000E+00 0.00000000E+00 0.00000000E+00
 2  8 0.00000000E+00 0.00000000E+00 0.00000000E+00 0.00000000E+00 0.00000000E+00
 2  9 0.00000000E+00 0.00000000E+00 0.00000000E+00 0.00000000E+00 0.00000000E+00
 2 10 0.00000000E+00 0.00000000E+00 0.00000000E+00 0.00000000E+00 0.00000000E+00
 2 11 0.00000000E+00 0.00000000E+00 0.00000000E+00 0.00000000E+00 0.00000000E+00
 2 12 0.00000000E+00 0.00000000E+00 0.00000000E+00 0.00000000E+00 0.00000000E+00
 2 13 0.00000000E+00 0.00000000E+00 0.00000000E+00 0.00000000E+00 0.00000000E+00
 2 14 0.00000000E+00 0.00000000E+00 0.00000000E+00 0.00000000E+00 0.00000000E+00
 2 15 0.00000000E+00 0.00000000E+00 0.00000000E+00 0.00000000E+00 0.00000000E+00
 2 16 0.00000000E+00 1.26074650E-04 0.00000000E+00-8.45734463E-05 0.00000000E+00
 2 17-8.45734463E-05 0.00000000E+00 0.00000000E+00 0.00000000E+00 0.00000000E+00
 2 18 0.00000000E+00 1.87507753E-03 0.00000000E+00-1.25784025E-03 0.00000000E+00
 2 19-1.25784025E-03 0.00000000E+00 0.00000000E+00 0.00000000E+00 0.00000000E+00
 2 20 0.00000000E+00 4.16703851E-03 0.00000000E+00-2.79533441E-03 0.00000000E+00
 2 21-2.79533441E-03 0.00000000E+00 0.00000000E+00 0.00000000E+00 0.00000000E+00
 2 22 0.00000000E+00 3.15195904E-03 0.00000000E+00-2.11439840E-03 0.00000000E+00
 2 23-2.11439840E-03 0.00000000E+00 0.00000000E+00 0.00000000E+00 0.00000000E+00
 2 24 0.00000000E+00 1.04067757E-03 0.00000000E+00-6.98107735E-04 0.00000000E+00
 2 25-6.98107735E-04 0.00000000E+00 0.00000000E+00 0.00000000E+00 0.00000000E+00
 2 26 0.00000000E+00 0.00000000E+00 0.00000000E+00 0.00000000E+00 0.00000000E+00
 2 27 0.00000000E+00 0.00000000E+00 0.00000000E+00 0.00000000E+00 0.00000000E+00
 2 28 0.00000000E+00 0.00000000E+00 0.00000000E+00 0.00000000E+00 0.00000000E+00
 2 29 0.00000000E+00 0.00000000E+00 0.00000000E+00 0.00000000E+00 0.00000000E+00
 2 30 0.00000000E+00 0.00000000E+00 0.00000000E+00 0.00000000E+00 0.00000000E+00
 2 31 0.00000000E+00 0.00000000E+00 0.00000000E+00 0.00000000E+00 0.00000000E+00
 2 32 0.00000000E+00 0.00000000E+00 0.00000000E+00 0.00000000E+00 0.00000000E+00
 2 33 0.00000000E+00 0.00000000E+00 0.00000000E+00 0.00000000E+00 0.00000000E+00
 2 34 0.00000000E+00 0.00000000E+00 0.00000000E+00 0.00000000E+00 0.00000000E+00
 2 35 0.00000000E+00 0.00000000E+00 0.00000000E+00 0.00000000E+00 0.00000000E+00
 2 36 0.00000000E+00 0.00000000E+00 0.00000000E+00 0.00000000E+00 0.00000000E+00
 2 37 0.00000000E+00 0.00000000E+00 0.00000000E+00 0.00000000E+00 0.00000000E+00
 2 38 0.00000000E+00 0.00000000E+00 1.93942637E-03 0.00000000E+00 0.00000000E+00
 2 39-4.41843941E-04 0.00000000E+00 0.00000000E+00 0.00000000E+00 0.00000000E+00
 2 40 0.00000000E+00 0.00000000E+00 0.00000000E+00 0.00000000E+00-2.14817279E-04
 2 41 0.00000000E+00 1.44103812E-04 0.00000000E+00 1.44103812E-04 0.00000000E+00
 2 42 0.00000000E+00 0.00000000E+00 0.00000000E+00 0.00000000E+00 0.00000000E+00
 2 43 0.00000000E+00 0.00000000E+00 0.00000000E+00 0.00000000E+00 0.00000000E+00
 2 44 0.00000000E+00 0.00000000E+00 0.00000000E+00 0.00000000E+00 0.00000000E+00
 2 45 0.00000000E+00 0.00000000E+00
 3  1 0.00000000E+00 0.00000000E+00 0.00000000E+00 0.00000000E+00 0.00000000E+00
 3  2 0.00000000E+00 0.00000000E+00 0.00000000E+00 0.00000000E+00 9.99080874E-01
 3  3 0.00000000E+00 0.00000000E+00 2.76085295E-02 0.00000000E+00 0.00000000E+00
 3  4 2.31179981E-02 0.00000000E+00 0.00000000E+00 7.75394970E-04 0.00000000E+00
 3  5 0.00000000E+00-1.24233220E-03 0.00000000E+00 0.00000000E+00 1.47773565E-04
 3  6 0.00000000E+00 0.00000000E+00-6.92193682E-03 0.00000000E+00 0.00000000E+00
 3  7 8.69623319E-06 0.00000000E+00 0.00000000E+00 0.00000000E+00 0.00000000E+00
 3  8 0.00000000E+00 0.00000000E+00 0.00000000E+00 0.00000000E+00 0.00000000E+00
 3  9 0.00000000E+00 0.00000000E+00 0.00000000E+00 0.00000000E+00 0.00000000E+00
 3 10 0.00000000E+00 0.00000000E+00 0.00000000E+00 0.00000000E+00 0.00000000E+00
 3 11 0.00000000E+00 0.00000000E+00 0.00000000E+00 0.00000000E+00 0.00000000E+00
 3 12 0.00000000E+00 0.00000000E+00 0.00000000E+00 0.00000000E+00 0.00000000E+00
 3 13 0.00000000E+00 0.00000000E+00 0.00000000E+00 0.00000000E+00 0.00000000E+00
 3 14 0.00000000E+00 0.00000000E+00 0.00000000E+00 0.00000000E+00 0.00000000E+00
 3 15 0.00000000E+00 0.00000000E+00 0.00000000E+00 0.00000000E+00 0.00000000E+00
 3 16 1.26074650E-04 0.00000000E+00-8.45734454E-05 0.00000000E+00 0.00000000E+00
 3 17 0.00000000E+00 0.00000000E+00-8.45734472E-05 0.00000000E+00 0.00000000E+00
 3 18 1.87507753E-03 0.00000000E+00-1.25784025E-03 0.00000000E+00 0.00000000E+00
 3 19 0.00000000E+00 0.00000000E+00-1.25784025E-03 0.00000000E+00 0.00000000E+00
 3 20 4.16703851E-03 0.00000000E+00-2.79533440E-03 0.00000000E+00 0.00000000E+00
 3 21 0.00000000E+00 0.00000000E+00-2.79533442E-03 0.00000000E+00 0.00000000E+00
 3 22 3.15195904E-03 0.00000000E+00-2.11439844E-03 0.00000000E+00 0.00000000E+00
 3 23 0.00000000E+00 0.00000000E+00-2.11439837E-03 0.00000000E+00 0.00000000E+00
 3 24 1.04067757E-03 0.00000000E+00-6.98107756E-04 0.00000000E+00 0.00000000E+00
 3 25 0.00000000E+00 0.00000000E+00-6.98107715E-04 0.00000000E+00 0.00000000E+00
 3 26 0.00000000E+00 0.00000000E+00 0.00000000E+00 0.00000000E+00 0.00000000E+00
 3 27 0.00000000E+00 0.00000000E+00 0.00000000E+00 0.00000000E+00 0.00000000E+00
 3 28 0.00000000E+00 0.00000000E+00 0.00000000E+00 0.00000000E+00 0.00000000E+00
 3 29 0.00000000E+00 0.00000000E+00 0.00000000E+00 0.00000000E+00 0.00000000E+00
 3 30 0.00000000E+00 0.00000000E+00 0.00000000E+00 0.00000000E+00 0.00000000E+00
 3 31 0.00000000E+00 0.00000000E+00 0.00000000E+00 0.00000000E+00 0.00000000E+00
 3 32 0.00000000E+00 0.00000000E+00 0.00000000E+00 0.00000000E+00 0.00000000E+00
 3 33 0.00000000E+00 0.00000000E+00 0.00000000E+00 0.00000000E+00 0.00000000E+00
 3 34 0.00000000E+00 0.00000000E+00 0.00000000E+00 0.00000000E+00 0.00000000E+00
 3 35 0.00000000E+00 0.00000000E+00 0.00000000E+00 0.00000000E+00 0.00000000E+00
 3 36 0.00000000E+00 0.00000000E+00 0.00000000E+00 0.00000000E+00 0.00000000E+00
 3 37 0.00000000E+00 0.00000000E+00 0.00000000E+00 0.00000000E+00 0.00000000E+00
 3 38 0.00000000E+00 1.93942637E-03 0.00000000E+00 0.00000000E+00-4.41843941E-04
 3 39 0.00000000E+00 0.00000000E+00 0.00000000E+00 0.00000000E+00 0.00000000E+00
 3 40 0.00000000E+00 0.00000000E+00 0.00000000E+00-2.14817279E-04 0.00000000E+00
 3 41 1.44103857E-04 0.00000000E+00 0.00000000E+00 0.00000000E+00 0.00000000E+00
 3 42 1.44103767E-04 0.00000000E+00 0.00000000E+00 0.00000000E+00 0.00000000E+00
 3 43 0.00000000E+00 0.00000000E+00 0.00000000E+00 0.00000000E+00 0.00000000E+00
 3 44 0.00000000E+00 0.00000000E+00 0.00000000E+00 0.00000000E+00 0.00000000E+00
 3 45 0.00000000E+00 0.00000000E+00
 4  1 0.00000000E+00 0.00000000E+00 0.00000000E+00 0.00000000E+00 0.00000000E+00
 4  2 0.00000000E+00 0.00000000E+00 0.00000000E+00 9.99080874E-01 0.00000000E+00
 4  3 0.00000000E+00 2.76085295E-02 0.00000000E+00 0.00000000E+00 2.31179981E-02
 4  4 0.00000000E+00 0.00000000E+00 7.75394970E-04 0.00000000E+00 0.00000000E+00
 4  5-1.24233220E-03 0.00000000E+00 0.00000000E+00 1.47773565E-04 0.00000000E+00
 4  6 0.00000000E+00-6.92193681E-03 0.00000000E+00 0.00000000E+00 8.69623313E-06
 4  7 0.00000000E+00 0.00000000E+00 0.00000000E+00 0.00000000E+00 0.00000000E+00
 4  8 0.00000000E+00 0.00000000E+00 0.00000000E+00 0.00000000E+00 0.00000000E+00
 4  9 0.00000000E+00 0.00000000E+00 0.00000000E+00 0.00000000E+00 0.00000000E+00
 4 10 0.00000000E+00 0.00000000E+00 0.00000000E+00 0.00000000E+00 0.00000000E+00
 4 11 0.00000000E+00 0.00000000E+00 0.00000000E+00 0.00000000E+00 0.00000000E+00
 4 12 0.00000000E+00 0.00000000E+00 0.00000000E+00 0.00000000E+00 0.00000000E+00
 4 13 0.00000000E+00 0.00000000E+00 0.00000000E+00 0.00000000E+00 0.00000000E+00
 4 14 0.00000000E+00 0.00000000E+00 0.00000000E+00 0.00000000E+00 0.00000000E+00
 4 15 0.00000000E+00 0.00000000E+00 0.00000000E+00 0.00000000E+00 1.26074650E-04
 4 16 0.00000000E+00 0.00000000E+00 0.00000000E+00 0.00000000E+00-8.45734463E-05
 4 17 0.00000000E+00-8.45734463E-05 0.00000000E+00 0.00000000E+00 1.87507753E-03
 4 18 0.00000000E+00 0.00000000E+00 0.00000000E+00 0.00000000E+00-1.25784025E-03
 4 19 0.00000000E+00-1.25784025E-03 0.00000000E+00 0.00000000E+00 4.16703851E-03
 4 20 0.00000000E+00 0.00000000E+00 0.00000000E+00 0.00000000E+00-2.79533441E-03
 4 21 0.00000000E+00-2.79533441E-03 0.00000000E+00 0.00000000E+00 3.15195904E-03
 4 22 0.00000000E+00 0.00000000E+00 0.00000000E+00 0.00000000E+00-2.11439840E-03
 4 23 0.00000000E+00-2.11439841E-03 0.00000000E+00 0.00000000E+00 1.04067757E-03
 4 24 0.00000000E+00 0.00000000E+00 0.00000000E+00 0.00000000E+00-6.98107732E-04
 4 25 0.00000000E+00-6.98107738E-04 0.00000000E+00 0.00000000E+00 0.00000000E+00
 4 26 0.00000000E+00 0.00000000E+00 0.00000000E+00 0.00000000E+00 0.00000000E+00
 4 27 0.00000000E+00 0.00000000E+00 0.00000000E+00 0.00000000E+00 0.00000000E+00
 4 28 0.00000000E+00 0.00000000E+00 0.00000000E+00 0.00000000E+00 0.00000000E+00
 4 29 0.00000000E+00 0.00000000E+00 0.00000000E+00 0.00000000E+00 0.00000000E+00
 4 30 0.00000000E+00 0.00000000E+00 0.00000000E+00 0.00000000E+00 0.00000000E+00
 4 31 0.00000000E+00 0.00000000E+00 0.00000000E+00 0.00000000E+00 0.00000000E+00
 4 32 0.00000000E+00 0.00000000E+00 0.00000000E+00 0.00000000E+00 0.00000000E+00
 4 33 0.00000000E+00 0.00000000E+00 0.00000000E+00 0.00000000E+00 0.00000000E+00
 4 34 0.00000000E+00 0.00000000E+00 0.00000000E+00 0.00000000E+00 0.00000000E+00
 4 35 0.00000000E+00 0.00000000E+00 0.00000000E+00 0.00000000E+00 0.00000000E+00
 4 36 0.00000000E+00 0.00000000E+00 0.00000000E+00 0.00000000E+00 0.00000000E+00
 4 37 0.00000000E+00 0.00000000E+00 0.00000000E+00 0.00000000E+00 0.00000000E+00
 4 38 1.93942638E-03 0.00000000E+00 0.00000000E+00-4.41843941E-04 0.00000000E+00
 4 39 0.00000000E+00 0.00000000E+00 0.00000000E+00 0.00000000E+00 0.00000000E+00
 4 40 0.00000000E+00 0.00000000E+00-2.14817279E-04 0.00000000E+00 0.00000000E+00
 4 41 0.00000000E+00 0.00000000E+00 1.44103806E-04 0.00000000E+00 1.44103818E-04
 4 42 0.00000000E+00 0.00000000E+00 0.00000000E+00 0.00000000E+00 0.00000000E+00
 4 43 0.00000000E+00 0.00000000E+00 0.00000000E+00 0.00000000E+00 0.00000000E+00
 4 44 0.00000000E+00 0.00000000E+00 0.00000000E+00 0.00000000E+00 0.00000000E+00
 4 45 0.00000000E+00 0.00000000E+00
 5  1 0.00000000E+00 0.00000000E+00 0.00000000E+00 0.00000000E+00 0.00000000E+00
 5  2 0.00000000E+00 0.00000000E+00 0.00000000E+00 0.00000000E+00 0.00000000E+00
 5  3 0.00000000E+00 0.00000000E+00 0.00000000E+00 0.00000000E+00 0.00000000E+00
 5  4 0.00000000E+00 0.00000000E+00 0.00000000E+00 0.00000000E+00 0.00000000E+00
 5  5 0.00000000E+00 0.00000000E+00 0.00000000E+00 0.00000000E+00 0.00000000E+00
 5  6 0.00000000E+00 0.00000000E+00 0.00000000E+00 0.00000000E+00 0.00000000E+00
 5  7 0.00000000E+00 0.00000000E+00-5.04288189E-01-5.04288189E-01 1.00857638E+00
 5  8 0.00000000E+00 0.00000000E+00 0.00000000E+00-4.26842400E-03-4.26842400E-03
 5  9 8.53684801E-03 0.00000000E+00 0.00000000E+00 0.00000000E+00-2.16485411E-03
 5 10-2.16485411E-03 4.32970823E-03 0.00000000E+00 0.00000000E+00 0.00000000E+00
 5 11-9.30294957E-04-9.30294957E-04 1.86058991E-03 0.00000000E+00 0.00000000E+00
 5 12 0.00000000E+00 4.59243785E-04 4.59243785E-04-9.18487570E-04 0.00000000E+00
 5 13 0.00000000E+00 0.00000000E+00 1.52991363E-02 1.52991363E-02-3.05982726E-02
 5 14 0.00000000E+00 0.00000000E+00 0.00000000E+00-1.82471681E-03-1.82471681E-03
 5 15 3.64943363E-03 0.00000000E+00 0.00000000E+00 0.00000000E+00 0.00000000E+00
 5 16 0.00000000E+00 0.00000000E+00 0.00000000E+00 0.00000000E+00 0.00000000E+00
 5 17 0.00000000E+00 0.00000000E+00 0.00000000E+00 0.00000000E+00 0.00000000E+00
 5 18 0.00000000E+00 0.00000000E+00 0.00000000E+00 0.00000000E+00 0.00000000E+00
 5 19 0.00000000E+00 0.00000000E+00 0.00000000E+00 0.00000000E+00 0.00000000E+00
 5 20 0.00000000E+00 0.00000000E+00 0.00000000E+00 0.00000000E+00 0.00000000E+00
 5 21 0.00000000E+00 0.00000000E+00 0.00000000E+00 0.00000000E+00 0.00000000E+00
 5 22 0.00000000E+00 0.00000000E+00 0.00000000E+00 0.00000000E+00 0.00000000E+00
 5 23 0.00000000E+00 0.00000000E+00 0.00000000E+00 0.00000000E+00 0.00000000E+00
 5 24 0.00000000E+00 0.00000000E+00 0.00000000E+00 0.00000000E+00 0.00000000E+00
 5 25 0.00000000E+00 0.00000000E+00 0.00000000E+00 0.00000000E+00-1.68370801E-04
 5 26-1.68370801E-04 3.36741602E-04 0.00000000E+00 0.00000000E+00 0.00000000E+00
 5 27 0.00000000E+00 0.00000000E+00 0.00000000E+00 5.91527078E-04-2.95763539E-04
 5 28-2.95763539E-04 0.00000000E+00 0.00000000E+00 0.00000000E+00-2.07364534E-04
 5 29-2.07364534E-04 4.14729067E-04 0.00000000E+00 0.00000000E+00 0.00000000E+00
 5 30 0.00000000E+00 0.00000000E+00 0.00000000E+00 7.28521428E-04-3.64260714E-04
 5 31-3.64260714E-04 0.00000000E+00 0.00000000E+00 0.00000000E+00-1.22394696E-04
 5 32-1.22394696E-04 2.44789391E-04 0.00000000E+00 0.00000000E+00 0.00000000E+00
 5 33 0.00000000E+00 0.00000000E+00 0.00000000E+00 4.30001973E-04-2.15000986E-04
 5 34-2.15000986E-04 0.00000000E+00 0.00000000E+00 0.00000000E+00-6.26631343E-05
 5 35-6.26631343E-05 1.25326269E-04 0.00000000E+00 0.00000000E+00 0.00000000E+00
 5 36 0.00000000E+00 0.00000000E+00 0.00000000E+00 2.20150646E-04-1.10075323E-04
 5 37-1.10075323E-04 0.00000000E+00 0.00000000E+00 0.00000000E+00 0.00000000E+00
 5 38 0.00000000E+00 0.00000000E+00 0.00000000E+00 0.00000000E+00 0.00000000E+00
 5 39 0.00000000E+00-1.07691621E-04-1.07691621E-04 2.15383242E-04 0.00000000E+00
 5 40 0.00000000E+00 0.00000000E+00 0.00000000E+00 0.00000000E+00 0.00000000E+00
 5 41 0.00000000E+00 0.00000000E+00 0.00000000E+00 0.00000000E+00 0.00000000E+00
 5 42 0.00000000E+00 0.00000000E+00 2.32059582E-05 2.32059582E-05-4.64119164E-05
 5 43 0.00000000E+00 0.00000000E+00 0.00000000E+00 0.00000000E+00 0.00000000E+00
 5 44 0.00000000E+00-8.15281066E-05 4.07640533E-05 4.07640533E-05 0.00000000E+00
 5 45 0.00000000E+00 0.00000000E+00
 6  1 0.00000000E+00 0.00000000E+00 0.00000000E+00 0.00000000E+00 0.00000000E+00
 6  2 0.00000000E+00 0.00000000E+00 0.00000000E+00 0.00000000E+00 0.00000000E+00
 6  3 0.00000000E+00 0.00000000E+00 0.00000000E+00 0.00000000E+00 0.00000000E+00
 6  4 0.00000000E+00 0.00000000E+00 0.00000000E+00 0.00000000E+00 0.00000000E+00
 6  5 0.00000000E+00 0.00000000E+00 0.00000000E+00 0.00000000E+00 0.00000000E+00
 6  6 0.00000000E+00 0.00000000E+00 0.00000000E+00 0.00000000E+00 0.00000000E+00
 6  7 0.00000000E+00 0.00000000E+00 8.73452764E-01-8.73452764E-01 0.00000000E+00
 6  8 0.00000000E+00 0.00000000E+00 0.00000000E+00 7.39312724E-03-7.39312724E-03
 6  9 0.00000000E+00 0.00000000E+00 0.00000000E+00 0.00000000E+00 3.74963731E-03
 6 10-3.74963731E-03 0.00000000E+00 0.00000000E+00 0.00000000E+00 0.00000000E+00
 6 11 1.61131813E-03-1.61131813E-03 0.00000000E+00 0.00000000E+00 0.00000000E+00
 6 12 0.00000000E+00-7.95433569E-04 7.95433569E-04 0.00000000E+00 0.00000000E+00
 6 13 0.00000000E+00 0.00000000E+00-2.64988814E-02 2.64988814E-02 0.00000000E+00
 6 14 0.00000000E+00 0.00000000E+00 0.00000000E+00 3.16050223E-03-3.16050223E-03
 6 15 0.00000000E+00 0.00000000E+00 0.00000000E+00 0.00000000E+00 0.00000000E+00
 6 16 0.00000000E+00 0.00000000E+00 0.00000000E+00 0.00000000E+00 0.00000000E+00
 6 17 0.00000000E+00 0.00000000E+00 0.00000000E+00 0.00000000E+00 0.00000000E+00
 6 18 0.00000000E+00 0.00000000E+00 0.00000000E+00 0.00000000E+00 0.00000000E+00
 6 19 0.00000000E+00 0.00000000E+00 0.00000000E+00 0.00000000E+00 0.00000000E+00
 6 20 0.00000000E+00 0.00000000E+00 0.00000000E+00 0.00000000E+00 0.00000000E+00
 6 21 0.00000000E+00 0.00000000E+00 0.00000000E+00 0.00000000E+00 0.00000000E+00
 6 22 0.00000000E+00 0.00000000E+00 0.00000000E+00 0.00000000E+00 0.00000000E+00
 6 23 0.00000000E+00 0.00000000E+00 0.00000000E+00 0.00000000E+00 0.00000000E+00
 6 24 0.00000000E+00 0.00000000E+00 0.00000000E+00 0.00000000E+00 0.00000000E+00
 6 25 0.00000000E+00 0.00000000E+00 0.00000000E+00 0.00000000E+00 2.91626782E-04
 6 26-2.91626782E-04 0.00000000E+00 0.00000000E+00 0.00000000E+00 0.00000000E+00
 6 27 0.00000000E+00 0.00000000E+00 0.00000000E+00 0.00000000E+00-5.12277476E-04
 6 28 5.12277476E-04 0.00000000E+00 0.00000000E+00 0.00000000E+00 3.59165908E-04
 6 29-3.59165908E-04 0.00000000E+00 0.00000000E+00 0.00000000E+00 0.00000000E+00
 6 30 0.00000000E+00 0.00000000E+00 0.00000000E+00 0.00000000E+00-6.30918064E-04
 6 31 6.30918064E-04 0.00000000E+00 0.00000000E+00 0.00000000E+00 2.11993831E-04
 6 32-2.11993831E-04 0.00000000E+00 0.00000000E+00 0.00000000E+00 0.00000000E+00
 6 33 0.00000000E+00 0.00000000E+00 0.00000000E+00 0.00000000E+00-3.72392632E-04
 6 34 3.72392632E-04 0.00000000E+00 0.00000000E+00 0.00000000E+00 1.08535732E-04
 6 35-1.08535732E-04 0.00000000E+00 0.00000000E+00 0.00000000E+00 0.00000000E+00
 6 36 0.00000000E+00 0.00000000E+00 0.00000000E+00 0.00000000E+00-1.90656052E-04
 6 37 1.90656052E-04 0.00000000E+00 0.00000000E+00 0.00000000E+00 0.00000000E+00
 6 38 0.00000000E+00 0.00000000E+00 0.00000000E+00 0.00000000E+00 0.00000000E+00
 6 39 0.00000000E+00 1.86527359E-04-1.86527359E-04 0.00000000E+00 0.00000000E+00
 6 40 0.00000000E+00 0.00000000E+00 0.00000000E+00 0.00000000E+00 0.00000000E+00
 6 41 0.00000000E+00 0.00000000E+00 0.00000000E+00 0.00000000E+00 0.00000000E+00
 6 42 0.00000000E+00 0.00000000E+00-4.01938986E-05 4.01938986E-05 0.00000000E+00
 6 43 0.00000000E+00 0.00000000E+00 0.00000000E+00 0.00000000E+00 0.00000000E+00
 6 44 0.00000000E+00 0.00000000E+00 7.06054114E-05-7.06054114E-05 0.00000000E+00
 6 45 0.00000000E+00 0.00000000E+00
 7  1-1.08562114E-02 9.74221277E-01-6.84800911E-02 1.31183791E-02 1.45164622E-03
 7  2-8.97276439E-05 2.69852681E-02 2.33441810E-03 0.00000000E+00 0.00000000E+00
 7  3 0.00000000E+00 0.00000000E+00 0.00000000E+00 0.00000000E+00 0.00000000E+00
 7  4 0.00000000E+00 0.00000000E+00 0.00000000E+00 0.00000000E+00 0.00000000E+00
 7  5 0.00000000E+00 0.00000000E+00 0.00000000E+00 0.00000000E+00 0.00000000E+00
 7  6 0.00000000E+00 0.00000000E+00 0.00000000E+00 0.00000000E+00 0.00000000E+00
 7  7 0.00000000E+00 0.00000000E+00 0.00000000E+00 0.00000000E+00 0.00000000E+00
 7  8 0.00000000E+00 0.00000000E+00 0.00000000E+00 0.00000000E+00 0.00000000E+00
 7  9 0.00000000E+00 0.00000000E+00 0.00000000E+00 0.00000000E+00 0.00000000E+00
 7 10 0.00000000E+00 0.00000000E+00 0.00000000E+00 0.00000000E+00 0.00000000E+00
 7 11 0.00000000E+00 0.00000000E+00 0.00000000E+00 0.00000000E+00 0.00000000E+00
 7 12 0.00000000E+00 0.00000000E+00 0.00000000E+00 0.00000000E+00 0.00000000E+00
 7 13 0.00000000E+00 0.00000000E+00 0.00000000E+00 0.00000000E+00 0.00000000E+00
 7 14 0.00000000E+00 0.00000000E+00 0.00000000E+00 0.00000000E+00 0.00000000E+00
 7 15 0.00000000E+00 0.00000000E+00 0.00000000E+00 0.00000000E+00 0.00000000E+00
 7 16 0.00000000E+00 0.00000000E+00 0.00000000E+00 0.00000000E+00 0.00000000E+00
 7 17 0.00000000E+00 0.00000000E+00 0.00000000E+00 0.00000000E+00 0.00000000E+00
 7 18 0.00000000E+00 0.00000000E+00 0.00000000E+00 0.00000000E+00 0.00000000E+00
 7 19 0.00000000E+00 0.00000000E+00 0.00000000E+00 0.00000000E+00 0.00000000E+00
 7 20 0.00000000E+00 0.00000000E+00 0.00000000E+00 0.00000000E+00 0.00000000E+00
 7 21 0.00000000E+00 0.00000000E+00 0.00000000E+00 0.00000000E+00 0.00000000E+00
 7 22 0.00000000E+00 0.00000000E+00 0.00000000E+00 0.00000000E+00 0.00000000E+00
 7 23 0.00000000E+00 0.00000000E+00 0.00000000E+00 0.00000000E+00 0.00000000E+00
 7 24 0.00000000E+00 0.00000000E+00 0.00000000E+00 0.00000000E+00 0.00000000E+00
 7 25 0.00000000E+00 0.00000000E+00 0.00000000E+00 0.00000000E+00-1.33058812E-03
 7 26-1.33058812E-03-1.33058812E-03 0.00000000E+00 0.00000000E+00 0.00000000E+00
 7 27 0.00000000E+00 0.00000000E+00 0.00000000E+00 1.16866894E-03 1.16866894E-03
 7 28 1.16866894E-03 0.00000000E+00 0.00000000E+00 0.00000000E+00-1.28380812E-03
 7 29-1.28380812E-03-1.28380812E-03 0.00000000E+00 0.00000000E+00 0.00000000E+00
 7 30 0.00000000E+00 0.00000000E+00 0.00000000E+00 1.12758159E-03 1.12758159E-03