 $CONTRL 
     SCFTYP=ROHF 
     MULT=1
     ICHARG=0 
     RUNTYP=ENERGY
     MAXIT=150
     ECP=READ
     ISPHER=1
 $END

 $SYSTEM 
     KDIAG=3
 $END

 $GUESS
    GUESS=HUCKEL
 $END


 $DATA  

C1
He 2    0. 0. 0.
S  8
  1      39.320931  0.01006570
  2      17.174528  0.02487620
  3       7.501461  0.05825370
  4       3.276475  0.13445960
  5       1.431093  0.24431180
  6       0.625070  0.34250610
  7       0.273017  0.28264700
  8       0.119248  0.07392530
S  1
  1       0.320560  1.00000000
S  1
  1       0.112477  1.00000000
P  1
  1       1.272523  1.00000000
P  1
  1       0.257075  1.00000000

 $END

 $ECP
He-ccECP GEN 0 1
3
2.000000  1 32.000000
64.00000  3 32.000000
-27.70084 2 33.713355
1          
0.000000  2 1.0000000
 $END

