 $CONTRL 
     SCFTYP=ROHF
     MULT=3 
     ICHARG=0 
     RUNTYP=ENERGY 
     MAXIT=150 
     PP=READ
 $END

 $CONTRL 
     ISPHER=1 
 $END

 $SYSTEM 
     KDIAG=3
     mwords=125 
 $END

 $GUESS
    GUESS=HUCKEL
 $END

 $DATA  
                                                                                
C1
O 8 0. 0. 0.
s 9
1 54.775216   -0.0012444
2 25.616801   0.0107330
3 11.980245   0.0018889
4 6.992317    -0.1742537
5 2.620277    0.0017622
6 1.225429    0.3161846
7 0.577797    0.4512023
8 0.268022    0.3121534
9 0.125346    0.0511167
s 1
1 1.351771    1.000000 
s 1
1 0.843157    1.000000
s 1
1 0.224380    1.000000
s 1
1 0.089752    1.000000
p 9
1 22.217266   0.0104866
2 10.747550   0.0366435
3 5.315785    0.0803674
4 2.660761    0.1627010
5 1.331816    0.2377791
6 0.678626    0.2811422
7 0.333673    0.2643189
8 0.167017    0.1466014
9 0.083598    0.0458145
p 1
1 1.106737    1.000000
p 1
1 0.452364    1.000000
p 1
1 0.148562    1.000000
p 1
1 0.059425    1.000000
p 1
1 0.052232    1.000000
d 1
1 4.008867    1.000000
d 1
1 1.344331    1.000000
d 1
1 0.455711    1.000000
d 1
1 0.182284    1.000000
f 1
1 2.763115    1.000000
f 1
1 0.876289    1.000000
f 1
1 0.350516    1.000000
g 1
1 1.759081    1.000000
g 1
1 0.703632    1.000000

 $END

 $ECP
O-QMC GEN 2 1
3
6.00000000 1 12.30997
73.85984   3 14.76962
-47.87600  2 13.71419
1
85.86406   2 13.65512
 $END

