 $CONTRL 
     SCFTYP=ROHF
     MULT=5
     ICHARG=0
     RUNTYP=ENERGY 
     MAXIT=150 
     PP=READ
 $END

 $CONTRL 
     ISPHER=1 
 $END

 $SYSTEM 
     KDIAG=3
     mwords=125 
 $END

 $GUESS
    GUESS=MOREAD
    NORB=59
    NORDER=1
    IORDER(5)=10,5,6,7,8,9
 $END

 $DATA  
                                                                                
C1
Fe 26 0. 0. 0.
S 3 
 1 20.5130280 0.2347140
 2 9.7767920 -0.8775270
 3 4.5735990 -0.3416360
S 1
 1 1.9499100 1.0
S 1
 1 0.7664880 1.0
S 1
 1 0.1007980 1.0
S 1
 1 0.0375160 1.0
S 1
 1 0.0100000 1.0
P 2
 1 63.1253260 0.0271470
 2 11.6568550 -1.0118750
P 2
 1 5.1786610 0.2151680
 2 2.0355320 0.8250950
P 1
 1 0.7088180 1.0
P 1
 1 0.1101680 1.0
P 1
 1 0.0294440 1.0
D 4
 1 33.6667900 0.0365290
 2 10.2356950 0.1828250
 3 3.4664880 0.4370690
 4 1.1272960 0.5751780
D 1
 1 0.3082470 1.0
D 1
 1 0.0800000 1.0
F 1
 1 3.5160000 1.0
F 1
 1 0.8710000 1.0
G 1
 1 2.2690000 1.0

 $END

 $ECP
Fe-STU GEN 10 3
1
0.000000    2 1.000000  
2
253.749588  2 20.930000 
37.922845   2 9.445000  
2
161.036812  2 21.760000 
27.651298   2 9.178000  
2
-24.431276  2 25.900000 
-1.434251   2 8.835000  

 $END


 $VEC   
 1  1 4.31404558E-01 7.60412303E-01 5.16596776E-01 1.57316812E-02-6.28163975E-03
 1  2 1.57213232E-03-0.00000000E+00-0.00000000E+00-0.00000000E+00-0.00000000E+00
 1  3-0.00000000E+00-0.00000000E+00-0.00000000E+00-0.00000000E+00-0.00000000E+00
 1  4-0.00000000E+00-0.00000000E+00-0.00000000E+00-0.00000000E+00-0.00000000E+00
 1  5-0.00000000E+00-1.23103975E-04-1.23103975E-04 2.46207950E-04-0.00000000E+00
 1  6-0.00000000E+00-0.00000000E+00 1.49201067E-03 1.49201067E-03-2.98402135E-03
 1  7-0.00000000E+00-0.00000000E+00-0.00000000E+00-1.34171235E-04-1.34171235E-04
 1  8 2.68342469E-04-0.00000000E+00-0.00000000E+00-0.00000000E+00-0.00000000E+00
 1  9-0.00000000E+00-0.00000000E+00-0.00000000E+00-0.00000000E+00-0.00000000E+00
 1 10-0.00000000E+00-0.00000000E+00-0.00000000E+00-0.00000000E+00-0.00000000E+00
 1 11-0.00000000E+00-0.00000000E+00-0.00000000E+00-0.00000000E+00-0.00000000E+00
 1 12-0.00000000E+00-0.00000000E+00-0.00000000E+00-0.00000000E+00 5.77005904E-04
 1 13 5.77005904E-04 1.13570488E-04-0.00000000E+00-0.00000000E+00-0.00000000E+00
 1 14-0.00000000E+00-0.00000000E+00-0.00000000E+00-9.13830084E-04-9.97501029E-05
 1 15-9.97501029E-05-0.00000000E+00-0.00000000E+00-0.00000000E+00
 2  1 0.00000000E+00 0.00000000E+00 0.00000000E+00 0.00000000E+00 0.00000000E+00
 2  2 0.00000000E+00 0.00000000E+00 1.10742742E-01 0.00000000E+00 0.00000000E+00
 2  3 7.33559811E-01 0.00000000E+00 0.00000000E+00 3.96819260E-01 0.00000000E+00
 2  4 0.00000000E+00 9.55671688E-03 0.00000000E+00 0.00000000E+00-1.66299483E-03
 2  5 0.00000000E+00 0.00000000E+00 0.00000000E+00 0.00000000E+00 0.00000000E+00
 2  6 0.00000000E+00 0.00000000E+00 0.00000000E+00 0.00000000E+00 0.00000000E+00
 2  7 0.00000000E+00 0.00000000E+00 0.00000000E+00 0.00000000E+00 0.00000000E+00
 2  8 0.00000000E+00 0.00000000E+00 0.00000000E+00 0.00000000E+00 0.00000000E+00
 2  9 1.46529783E-03 0.00000000E+00-3.52923746E-03 0.00000000E+00 0.00000000E+00
 2 10 0.00000000E+00 0.00000000E+00 1.56333412E-03 0.00000000E+00 0.00000000E+00
 2 11 2.89813625E-03 0.00000000E+00-4.78520050E-03 0.00000000E+00 0.00000000E+00
 2 12 0.00000000E+00 0.00000000E+00 8.96942697E-04 0.00000000E+00 0.00000000E+00
 2 13 0.00000000E+00 0.00000000E+00 0.00000000E+00 0.00000000E+00 0.00000000E+00
 2 14 0.00000000E+00 0.00000000E+00 0.00000000E+00 0.00000000E+00 0.00000000E+00
 2 15 0.00000000E+00 0.00000000E+00 0.00000000E+00 0.00000000E+00
 3  1 0.00000000E+00 0.00000000E+00 0.00000000E+00 0.00000000E+00 0.00000000E+00
 3  2 0.00000000E+00 1.10742742E-01 0.00000000E+00 0.00000000E+00 7.33559811E-01
 3  3 0.00000000E+00 0.00000000E+00 3.96819260E-01 0.00000000E+00 0.00000000E+00
 3  4 9.55671688E-03 0.00000000E+00 0.00000000E+00-1.66299483E-03 0.00000000E+00
 3  5 0.00000000E+00 0.00000000E+00 0.00000000E+00 0.00000000E+00 0.00000000E+00
 3  6 0.00000000E+00 0.00000000E+00 0.00000000E+00 0.00000000E+00 0.00000000E+00
 3  7 0.00000000E+00 0.00000000E+00 0.00000000E+00 0.00000000E+00 0.00000000E+00
 3  8 0.00000000E+00 0.00000000E+00 0.00000000E+00 0.00000000E+00 1.46529783E-03
 3  9 0.00000000E+00 0.00000000E+00 0.00000000E+00 0.00000000E+00-3.52923746E-03
 3 10 0.00000000E+00 1.56333412E-03 0.00000000E+00 0.00000000E+00 2.89813625E-03
 3 11 0.00000000E+00 0.00000000E+00 0.00000000E+00 0.00000000E+00-4.78520050E-03
 3 12 0.00000000E+00 8.96942697E-04 0.00000000E+00 0.00000000E+00 0.00000000E+00
 3 13 0.00000000E+00 0.00000000E+00 0.00000000E+00 0.00000000E+00 0.00000000E+00
 3 14 0.00000000E+00 0.00000000E+00 0.00000000E+00 0.00000000E+00 0.00000000E+00
 3 15 0.00000000E+00 0.00000000E+00 0.00000000E+00 0.00000000E+00
 4  1-0.00000000E+00-0.00000000E+00-0.00000000E+00-0.00000000E+00-0.00000000E+00
 4  2-0.00000000E+00-0.00000000E+00-0.00000000E+00 1.11249331E-01-0.00000000E+00
 4  3-0.00000000E+00 7.35802558E-01-0.00000000E+00-0.00000000E+00 3.95067434E-01
 4  4-0.00000000E+00-0.00000000E+00 7.79411156E-03-0.00000000E+00-0.00000000E+00
 4  5-1.14605194E-03-0.00000000E+00-0.00000000E+00-0.00000000E+00-0.00000000E+00
 4  6-0.00000000E+00-0.00000000E+00-0.00000000E+00-0.00000000E+00-0.00000000E+00
 4  7-0.00000000E+00-0.00000000E+00-0.00000000E+00-0.00000000E+00-0.00000000E+00
 4  8-0.00000000E+00-0.00000000E+00-0.00000000E+00-0.00000000E+00-0.00000000E+00
 4  9-0.00000000E+00 2.69161233E-03-0.00000000E+00-1.80558844E-03-0.00000000E+00
 4 10-1.80558844E-03-0.00000000E+00-0.00000000E+00-0.00000000E+00-0.00000000E+00
 4 11-0.00000000E+00 2.36279227E-03-0.00000000E+00-1.58500924E-03-0.00000000E+00
 4 12-1.58500924E-03-0.00000000E+00-0.00000000E+00-0.00000000E+00-0.00000000E+00
 4 13-0.00000000E+00-0.00000000E+00-0.00000000E+00-0.00000000E+00-0.00000000E+00
 4 14-0.00000000E+00-0.00000000E+00-0.00000000E+00-0.00000000E+00-0.00000000E+00
 4 15-0.00000000E+00-0.00000000E+00-0.00000000E+00-0.00000000E+00
 5  1-0.00000000E+00-0.00000000E+00-0.00000000E+00-0.00000000E+00-0.00000000E+00
 5  2-0.00000000E+00-0.00000000E+00-0.00000000E+00-0.00000000E+00-0.00000000E+00
 5  3-0.00000000E+00-0.00000000E+00-0.00000000E+00-0.00000000E+00-0.00000000E+00
 5  4-0.00000000E+00-0.00000000E+00-0.00000000E+00-0.00000000E+00-0.00000000E+00
 5  5-0.00000000E+00 7.39947072E-01-7.39947072E-01-0.00000000E+00-0.00000000E+00
 5  6-0.00000000E+00-0.00000000E+00 2.58828946E-01-2.58828946E-01-0.00000000E+00
 5  7-0.00000000E+00-0.00000000E+00-0.00000000E+00 8.66954948E-03-8.66954948E-03
 5  8-0.00000000E+00-0.00000000E+00-0.00000000E+00-0.00000000E+00-0.00000000E+00
 5  9-0.00000000E+00-0.00000000E+00-0.00000000E+00-0.00000000E+00-0.00000000E+00
 5 10-0.00000000E+00-0.00000000E+00-0.00000000E+00-0.00000000E+00-0.00000000E+00
 5 11-0.00000000E+00-0.00000000E+00-0.00000000E+00-0.00000000E+00-0.00000000E+00
 5 12-0.00000000E+00-0.00000000E+00-0.00000000E+00-0.00000000E+00-8.39957951E-04
 5 13 8.39957951E-04-0.00000000E+00-0.00000000E+00-0.00000000E+00-0.00000000E+00
 5 14-0.00000000E+00-0.00000000E+00-0.00000000E+00-0.00000000E+00 1.47548705E-03
 5 15-1.47548705E-03-0.00000000E+00-0.00000000E+00-0.00000000E+00
 6  1-1.10072246E-03-1.88130076E-03-5.09627953E-03 1.67092522E-02 6.87966644E-04
 6  2 2.43263377E-04-0.00000000E+00-0.00000000E+00-0.00000000E+00-0.00000000E+00
 6  3-0.00000000E+00-0.00000000E+00-0.00000000E+00-0.00000000E+00-0.00000000E+00
 6  4-0.00000000E+00-0.00000000E+00-0.00000000E+00-0.00000000E+00-0.00000000E+00
 6  5-0.00000000E+00-4.39170318E-01-4.39170318E-01 8.78340637E-01-0.00000000E+00
 6  6-0.00000000E+00-0.00000000E+00-1.31142895E-01-1.31142895E-01 2.62285790E-01
 6  7-0.00000000E+00-0.00000000E+00-0.00000000E+00-4.57109910E-05-4.57109910E-05
 6  8 9.14219821E-05-0.00000000E+00-0.00000000E+00-0.00000000E+00-0.00000000E+00
 6  9-0.00000000E+00-0.00000000E+00-0.00000000E+00-0.00000000E+00-0.00000000E+00
 6 10-0.00000000E+00-0.00000000E+00-0.00000000E+00-0.00000000E+00-0.00000000E+00
 6 11-0.00000000E+00-0.00000000E+00-0.00000000E+00-0.00000000E+00-0.00000000E+00
 6 12-0.00000000E+00-0.00000000E+00-0.00000000E+00-0.00000000E+00 2.68270063E-03
 6 13 2.68270063E-03 3.61340349E-03-0.00000000E+00-0.00000000E+00-0.00000000E+00
 6 14-0.00000000E+00-0.00000000E+00-0.00000000E+00-1.53879728E-03-3.17368866E-03
 6 15-3.17368866E-03-0.00000000E+00-0.00000000E+00-0.00000000E+00
 7  1-0.00000000E+00-0.00000000E+00-0.00000000E+00-0.00000000E+00-0.00000000E+00
 7  2-0.00000000E+00-0.00000000E+00-0.00000000E+00-0.00000000E+00-0.00000000E+00
 7  3-0.00000000E+00-0.00000000E+00-0.00000000E+00-0.00000000E+00-0.00000000E+00
 7  4-0.00000000E+00-0.00000000E+00-0.00000000E+00-0.00000000E+00-0.00000000E+00
 7  5-0.00000000E+00-0.00000000E+00-0.00000000E+00-0.00000000E+00-0.00000000E+00
 7  6-0.00000000E+00 8.77134923E-01-0.00000000E+00-0.00000000E+00-0.00000000E+00
 7  7-0.00000000E+00-0.00000000E+00 2.64418640E-01-0.00000000E+00-0.00000000E+00
 7  8-0.00000000E+00-0.00000000E+00-0.00000000E+00 5.41616067E-04-0.00000000E+00
 7  9-0.00000000E+00-0.00000000E+00-0.00000000E+00-0.00000000E+00-0.00000000E+00
 7 10-0.00000000E+00-0.00000000E+00-0.00000000E+00-0.00000000E+00-0.00000000E+00
 7 11-0.00000000E+00-0.00000000E+00-0.00000000E+00-0.00000000E+00-0.00000000E+00
 7 12-0.00000000E+00-0.00000000E+00-0.00000000E+00-0.00000000E+00-0.00000000E+00
 7 13-0.00000000E+00-0.00000000E+00-0.00000000E+00-0.00000000E+00-0.00000000E+00
 7 14-3.97675557E-03-0.00000000E+00 4.12013895E-03-0.00000000E+00-0.00000000E+00
 7 15-0.00000000E+00-1.92368993E-04-0.00000000E+00-0.00000000E+00
 8  1-0.00000000E+00-0.00000000E+00-0.00000000E+00-0.00000000E+00-0.00000000E+00
 8  2-0.00000000E+00-0.00000000E+00-0.00000000E+00-0.00000000E+00-0.00000000E+00
 8  3-0.00000000E+00-0.00000000E+00-0.00000000E+00-0.00000000E+00-0.00000000E+00
 8  4-0.00000000E+00-0.00000000E+00-0.00000000E+00-0.00000000E+00-0.00000000E+00
 8  5-0.00000000E+00-0.00000000E+00-0.00000000E+00-0.00000000E+00-0.00000000E+00
 8  6 8.77134923E-01-0.00000000E+00-0.00000000E+00-0.00000000E+00-0.00000000E+00
 8  7-0.00000000E+00 2.64418640E-01-0.00000000E+00-0.00000000E+00-0.00000000E+00
 8  8-0.00000000E+00-0.00000000E+00 5.41616067E-04-0.00000000E+00-0.00000000E+00
 8  9-0.00000000E+00-0.00000000E+00-0.00000000E+00-0.00000000E+00-0.00000000E+00
 8 10-0.00000000E+00-0.00000000E+00-0.00000000E+00-0.00000000E+00-0.00000000E+00
 8 11-0.00000000E+00-0.00000000E+00-0.00000000E+00-0.00000000E+00-0.00000000E+00
 8 12-0.00000000E+00-0.00000000E+00-0.00000000E+00-0.00000000E+00-0.00000000E+00
 8 13-0.00000000E+00-0.00000000E+00-0.00000000E+00-3.97675557E-03-0.00000000E+00
 8 14-0.00000000E+00 4.12013895E-03-0.00000000E+00-0.00000000E+00-0.00000000E+00
 8 15-0.00000000E+00-0.00000000E+00-1.92368993E-04-0.00000000E+00
 9  1 0.00000000E+00 0.00000000E+00 0.00000000E+00 0.00000000E+00 0.00000000E+00
 9  2 0.00000000E+00 0.00000000E+00 0.00000000E+00 0.00000000E+00 0.00000000E+00
 9  3 0.00000000E+00 0.00000000E+00 0.00000000E+00 0.00000000E+00 0.00000000E+00
 9  4 0.00000000E+00 0.00000000E+00 0.00000000E+00 0.00000000E+00 0.00000000E+00
 9  5 0.00000000E+00 0.00000000E+00 0.00000000E+00 0.00000000E+00 8.72555403E-01
 9  6 0.00000000E+00 0.00000000E+00 0.00000000E+00 0.00000000E+00 0.00000000E+00
 9  7 2.71598578E-01 0.00000000E+00 0.00000000E+00 0.00000000E+00 0.00000000E+00
 9  8 0.00000000E+00 2.40522493E-03 0.00000000E+00 0.00000000E+00 0.00000000E+00
 9  9 0.00000000E+00 0.00000000E+00 0.00000000E+00 0.00000000E+00 0.00000000E+00
 9 10 0.00000000E+00 0.00000000E+00 0.00000000E+00 0.00000000E+00 0.00000000E+00
 9 11 0.00000000E+00 0.00000000E+00 0.00000000E+00 0.00000000E+00 0.00000000E+00
 9 12 0.00000000E+00 0.00000000E+00 0.00000000E+00 0.00000000E+00 0.00000000E+00
 9 13 0.00000000E+00 0.00000000E+00-9.04246060E-04 0.00000000E+00-9.04246060E-04
 9 14 0.00000000E+00 0.00000000E+00 0.00000000E+00 0.00000000E+00 0.00000000E+00
 9 15 0.00000000E+00 0.00000000E+00 0.00000000E+00 2.42634679E-03
10  1-1.37720509E-01-3.08675614E-01-2.78875097E-01 1.09142540E+00 1.06990014E-02
10  2 2.35100968E-02 0.00000000E+00 0.00000000E+00 0.00000000E+00 0.00000000E+00
10  3 0.00000000E+00 0.00000000E+00 0.00000000E+00 0.00000000E+00 0.00000000E+00
10  4 0.00000000E+00 0.00000000E+00 0.00000000E+00 0.00000000E+00 0.00000000E+00
10  5 0.00000000E+00 1.16357579E-02 1.16357579E-02-2.32715158E-02 0.00000000E+00
10  6 0.00000000E+00 0.00000000E+00-5.32852839E-03-5.32852839E-03 1.06570568E-02
10  7 0.00000000E+00 0.00000000E+00 0.00000000E+00-3.36474914E-03-3.36474914E-03
10  8 6.72949828E-03 0.00000000E+00 0.00000000E+00 0.00000000E+00 0.00000000E+00
10  9 0.00000000E+00 0.00000000E+00 0.00000000E+00 0.00000000E+00 0.00000000E+00
10 10 0.00000000E+00 0.00000000E+00 0.00000000E+00 0.00000000E+00 0.00000000E+00
10 11 0.00000000E+00 0.00000000E+00 0.00000000E+00 0.00000000E+00 0.00000000E+00
10 12 0.00000000E+00 0.00000000E+00 0.00000000E+00 0.00000000E+00-7.95871096E-05
10 13-7.95871096E-05-7.87840415E-05 0.00000000E+00 0.00000000E+00 0.00000000E+00
10 14 0.00000000E+00 0.00000000E+00 0.00000000E+00 7.06075022E-05 6.91968166E-05
10 15 6.91968166E-05 0.00000000E+00 0.00000000E+00 0.00000000E+00
11  1 0.00000000E+00 0.00000000E+00 0.00000000E+00 0.00000000E+00 0.00000000E+00
11  2 0.00000000E+00 0.00000000E+00 0.00000000E+00-2.73335800E-02 0.00000000E+00
11  3 0.00000000E+00-2.01019516E-01 0.00000000E+00 0.00000000E+00-4.20827872E-02
11  4 0.00000000E+00 0.00000000E+00 8.26081943E-01 0.00000000E+00 0.00000000E+00
11  5 2.68575309E-01 0.00000000E+00 0.00000000E+00 0.00000000E+00 0.00000000E+00
11  6 0.00000000E+00 0.00000000E+00 0.00000000E+00 0.00000000E+00 0.00000000E+00
11  7 0.00000000E+00 0.00000000E+00 0.00000000E+00 0.00000000E+00 0.00000000E+00
11  8 0.00000000E+00 0.00000000E+00 0.00000000E+00 0.00000000E+00 0.00000000E+00
11  9 0.00000000E+00-1.04426123E-03 0.00000000E+00 7.00511730E-04 0.00000000E+00
11 10 7.00511730E-04 0.00000000E+00 0.00000000E+00 0.00000000E+00 0.00000000E+00
11 11 0.00000000E+00 2.51297213E-03 0.00000000E+00-1.68575295E-03 0.00000000E+00
11 12-1.68575295E-03 0.00000000E+00 0.00000000E+00 0.00000000E+00 0.00000000E+00
11 13 0.00000000E+00 0.00000000E+00 0.00000000E+00 0.00000000E+00 0.00000000E+00
11 14 0.00000000E+00 0.00000000E+00 0.00000000E+00 0.00000000E+00 0.00000000E+00
11 15 0.00000000E+00 0.00000000E+00 0.00000000E+00 0.00000000E+00
12  1 0.00000000E+00 0.00000000E+00 0.00000000E+00 0.00000000E+00 0.00000000E+00
12  2 0.00000000E+00-2.55394796E-02 0.00000000E+00 0.00000000E+00-1.87082857E-01
12  3 0.00000000E+00 0.00000000E+00-5.10926312E-02 0.00000000E+00 0.00000000E+00
12  4 7.87320496E-01 0.00000000E+00 0.00000000E+00 3.19844964E-01 0.00000000E+00
12  5 0.00000000E+00 0.00000000E+00 0.00000000E+00 0.00000000E+00 0.00000000E+00
12  6 0.00000000E+00 0.00000000E+00 0.00000000E+00 0.00000000E+00 0.00000000E+00
12  7 0.00000000E+00 0.00000000E+00 0.00000000E+00 0.00000000E+00 0.00000000E+00
12  8 0.00000000E+00 0.00000000E+00 0.00000000E+00 0.00000000E+00 1.35369090E-03
12  9 0.00000000E+00 0.00000000E+00 0.00000000E+00 0.00000000E+00-6.63935502E-04
12 10 0.00000000E+00-1.15223143E-03 0.00000000E+00 0.00000000E+00-2.87564075E-03
12 11 0.00000000E+00 0.00000000E+00 0.00000000E+00 0.00000000E+00 1.24660664E-03
12 12 0.00000000E+00 2.61147028E-03 0.00000000E+00 0.00000000E+00 0.00000000E+00
12 13 0.00000000E+00 0.00000000E+00 0.00000000E+00 0.00000000E+00 0.00000000E+00
12 14 0.00000000E+00 0.00000000E+00 0.00000000E+00 0.00000000E+00 0.00000000E+00
12 15 0.00000000E+00 0.00000000E+00 0.00000000E+00 0.00000000E+00
13  1 0.00000000E+00 0.00000000E+00 0.00000000E+00 0.00000000E+00 0.00000000E+00
13  2 0.00000000E+00 0.00000000E+00-2.55394796E-02 0.00000000E+00 0.00000000E+00
13  3-1.87082857E-01 0.00000000E+00 0.00000000E+00-5.10926312E-02 0.00000000E+00
13  4 0.00000000E+00 7.87320496E-01 0.00000000E+00 0.00000000E+00 3.19844964E-01
13  5 0.00000000E+00 0.00000000E+00 0.00000000E+00 0.00000000E+00 0.00000000E+00
13  6 0.00000000E+00 0.00000000E+00 0.00000000E+00 0.00000000E+00 0.00000000E+00
13  7 0.00000000E+00 0.00000000E+00 0.00000000E+00 0.00000000E+00 0.00000000E+00
13  8 0.00000000E+00 0.00000000E+00 0.00000000E+00 0.00000000E+00 0.00000000E+00
13  9 1.35369090E-03 0.00000000E+00-6.63935502E-04 0.00000000E+00 0.00000000E+00
13 10 0.00000000E+00 0.00000000E+00-1.15223143E-03 0.00000000E+00 0.00000000E+00
13 11-2.87564075E-03 0.00000000E+00 1.24660664E-03 0.00000000E+00 0.00000000E+00
13 12 0.00000000E+00 0.00000000E+00 2.61147028E-03 0.00000000E+00 0.00000000E+00
13 13 0.00000000E+00 0.00000000E+00 0.00000000E+00 0.00000000E+00 0.00000000E+00
13 14 0.00000000E+00 0.00000000E+00 0.00000000E+00 0.00000000E+00 0.00000000E+00
13 15 0.00000000E+00 0.00000000E+00 0.00000000E+00 0.00000000E+00
14  1 4.51033684E-02 1.02750461E-01 1.03408780E-01-6.95861365E-01 1.72882754E-01
14  2 1.03988971E+00-0.00000000E+00-0.00000000E+00-0.00000000E+00-0.00000000E+00
14  3-0.00000000E+00-0.00000000E+00-0.00000000E+00-0.00000000E+00-0.00000000E+00
14  4-0.00000000E+00-0.00000000E+00-0.00000000E+00-0.00000000E+00-0.00000000E+00
14  5-0.00000000E+00-2.38952353E-03-2.38952353E-03 4.77904707E-03-0.00000000E+00
14  6-0.00000000E+00-0.00000000E+00 3.76862162E-03 3.76862162E-03-7.53724323E-03
14  7-0.00000000E+00-0.00000000E+00-0.00000000E+00 1.64327682E-03 1.64327682E-03
14  8-3.28655364E-03-0.00000000E+00-0.00000000E+00-0.00000000E+00-0.00000000E+00
14  9-0.00000000E+00-0.00000000E+00-0.00000000E+00-0.00000000E+00-0.00000000E+00
14 10-0.00000000E+00-0.00000000E+00-0.00000000E+00-0.00000000E+00-0.00000000E+00
14 11-0.00000000E+00-0.00000000E+00-0.00000000E+00-0.00000000E+00-0.00000000E+00
14 12-0.00000000E+00-0.00000000E+00-0.00000000E+00-0.00000000E+00 7.87687139E-05
14 13 7.87687139E-05 2.47286601E-05-0.00000000E+00-0.00000000E+00-0.00000000E+00
14 14-0.00000000E+00-0.00000000E+00-0.00000000E+00-1.16647277E-04-2.17194310E-05
14 15-2.17194310E-05-0.00000000E+00-0.00000000E+00-0.00000000E+00
15  1-0.00000000E+00-0.00000000E+00-0.00000000E+00-0.00000000E+00-0.00000000E+00
15  2-0.00000000E+00-0.00000000E+00-0.00000000E+00 1.88577431E-02-0.00000000E+00
15  3-0.00000000E+00 1.39677708E-01-0.00000000E+00-0.00000000E+00 4.44102131E-02
15  4-0.00000000E+00-0.00000000E+00-9.72790695E-01-0.00000000E+00-0.00000000E+00
15  5 1.22857887E+00-0.00000000E+00-0.00000000E+00-0.00000000E+00-0.00000000E+00
15  6-0.00000000E+00-0.00000000E+00-0.00000000E+00-0.00000000E+00-0.00000000E+00
15  7-0.00000000E+00-0.00000000E+00-0.00000000E+00-0.00000000E+00-0.00000000E+00
15  8-0.00000000E+00-0.00000000E+00-0.00000000E+00-0.00000000E+00-0.00000000E+00
15  9-0.00000000E+00 7.20699936E-04-0.00000000E+00-4.83460215E-04-0.00000000E+00
15 10-4.83460215E-04-0.00000000E+00-0.00000000E+00-0.00000000E+00-0.00000000E+00
15 11-0.00000000E+00-1.89799205E-03-0.00000000E+00 1.27321178E-03-0.00000000E+00
15 12 1.27321178E-03-0.00000000E+00-0.00000000E+00-0.00000000E+00-0.00000000E+00
15 13-0.00000000E+00-0.00000000E+00-0.00000000E+00-0.00000000E+00-0.00000000E+00
15 14-0.00000000E+00-0.00000000E+00-0.00000000E+00-0.00000000E+00-0.00000000E+00
15 15-0.00000000E+00-0.00000000E+00-0.00000000E+00-0.00000000E+00
16  1-0.00000000E+00-0.00000000E+00-0.00000000E+00-0.00000000E+00-0.00000000E+00
16  2-0.00000000E+00-0.00000000E+00 1.91224648E-02-0.00000000E+00-0.00000000E+00
16  3 1.41022009E-01-0.00000000E+00-0.00000000E+00 5.58247318E-02-0.00000000E+00
16  4-0.00000000E+00-1.01123682E+00-0.00000000E+00-0.00000000E+00 1.21724542E+00
16  5-0.00000000E+00-0.00000000E+00-0.00000000E+00-0.00000000E+00-0.00000000E+00
16  6-0.00000000E+00-0.00000000E+00-0.00000000E+00-0.00000000E+00-0.00000000E+00
16  7-0.00000000E+00-0.00000000E+00-0.00000000E+00-0.00000000E+00-0.00000000E+00
16  8-0.00000000E+00-0.00000000E+00-0.00000000E+00-0.00000000E+00-0.00000000E+00
16  9-1.02687797E-03-0.00000000E+00 5.08248604E-04-0.00000000E+00-0.00000000E+00
16 10-0.00000000E+00-0.00000000E+00 8.69452762E-04-0.00000000E+00-0.00000000E+00
16 11 2.37167707E-03-0.00000000E+00-1.03105951E-03-0.00000000E+00-0.00000000E+00
16 12-0.00000000E+00-0.00000000E+00-2.15087918E-03-0.00000000E+00-0.00000000E+00
16 13-0.00000000E+00-0.00000000E+00-0.00000000E+00-0.00000000E+00-0.00000000E+00
16 14-0.00000000E+00-0.00000000E+00-0.00000000E+00-0.00000000E+00-0.00000000E+00
16 15-0.00000000E+00-0.00000000E+00-0.00000000E+00-0.00000000E+00
17  1-0.00000000E+00-0.00000000E+00-0.00000000E+00-0.00000000E+00-0.00000000E+00
17  2-0.00000000E+00 1.91224648E-02-0.00000000E+00-0.00000000E+00 1.41022009E-01
17  3-0.00000000E+00-0.00000000E+00 5.58247318E-02-0.00000000E+00-0.00000000E+00
17  4-1.01123682E+00-0.00000000E+00-0.00000000E+00 1.21724542E+00-0.00000000E+00
17  5-0.00000000E+00-0.00000000E+00-0.00000000E+00-0.00000000E+00-0.00000000E+00
17  6-0.00000000E+00-0.00000000E+00-0.00000000E+00-0.00000000E+00-0.00000000E+00
17  7-0.00000000E+00-0.00000000E+00-0.00000000E+00-0.00000000E+00-0.00000000E+00
17  8-0.00000000E+00-0.00000000E+00-0.00000000E+00-0.00000000E+00-1.02687797E-03
17  9-0.00000000E+00-0.00000000E+00-0.00000000E+00-0.00000000E+00 5.08248604E-04
17 10-0.00000000E+00 8.69452762E-04-0.00000000E+00-0.00000000E+00 2.37167707E-03
17 11-0.00000000E+00-0.00000000E+00-0.00000000E+00-0.00000000E+00-1.03105951E-03
17 12-0.00000000E+00-2.15087918E-03-0.00000000E+00-0.00000000E+00-0.00000000E+00
17 13-0.00000000E+00-0.00000000E+00-0.00000000E+00-0.00000000E+00-0.00000000E+00
17 14-0.00000000E+00-0.00000000E+00-0.00000000E+00-0.00000000E+00-0.00000000E+00
17 15-0.00000000E+00-0.00000000E+00-0.00000000E+00-0.00000000E+00
18  1 7.51189402E-02 1.58555249E-01 2.31549719E-01-2.02374022E+00 2.93489165E+00
18  2-1.36702015E+00 0.00000000E+00 0.00000000E+00 0.00000000E+00 0.00000000E+00
18  3 0.00000000E+00 0.00000000E+00 0.00000000E+00 0.00000000E+00 0.00000000E+00
18  4 0.00000000E+00 0.00000000E+00 0.00000000E+00 0.00000000E+00 0.00000000E+00
18  5 0.00000000E+00-1.22728129E-02-1.22728129E-02 2.45456259E-02 0.00000000E+00
18  6 0.00000000E+00 0.00000000E+00 6.28970221E-03 6.28970221E-03-1.25794044E-02
18  7 0.00000000E+00 0.00000000E+00 0.00000000E+00 4.87596417E-02 4.87596417E-02
18  8-9.75192834E-02 0.00000000E+00 0.00000000E+00 0.00000000E+00 0.00000000E+00
18  9 0.00000000E+00 0.00000000E+00 0.00000000E+00 0.00000000E+00 0.00000000E+00
18 10 0.00000000E+00 0.00000000E+00 0.00000000E+00 0.00000000E+00 0.00000000E+00
18 11 0.00000000E+00 0.00000000E+00 0.00000000E+00 0.00000000E+00 0.00000000E+00
18 12 0.00000000E+00 0.00000000E+00 0.00000000E+00 0.00000000E+00 2.00565007E-04
18 13 2.00565007E-04 1.05092494E-04 0.00000000E+00 0.00000000E+00 0.00000000E+00
18 14 0.00000000E+00 0.00000000E+00 0.00000000E+00-2.60012734E-04-9.23037951E-05
18 15-9.23037951E-05 0.00000000E+00 0.00000000E+00 0.00000000E+00
19  1 1.01400975E-02 2.07898785E-02 3.07246405E-02-2.32230709E-01 3.08499223E-01
19  2-1.36273219E-01 0.00000000E+00 0.00000000E+00 0.00000000E+00 0.00000000E+00
19  3 0.00000000E+00 0.00000000E+00 0.00000000E+00 0.00000000E+00 0.00000000E+00
19  4 0.00000000E+00 0.00000000E+00 0.00000000E+00 0.00000000E+00 0.00000000E+00
19  5 0.00000000E+00 8.55295713E-02 8.55295713E-02-1.71059143E-01 0.00000000E+00
19  6 0.00000000E+00 0.00000000E+00 6.97337552E-03 6.97337552E-03-1.39467510E-02
19  7 0.00000000E+00 0.00000000E+00 0.00000000E+00-4.97575903E-01-4.97575903E-01
19  8 9.95151806E-01 0.00000000E+00 0.00000000E+00 0.00000000E+00 0.00000000E+00
19  9 0.00000000E+00 0.00000000E+00 0.00000000E+00 0.00000000E+00 0.00000000E+00
19 10 0.00000000E+00 0.00000000E+00 0.00000000E+00 0.00000000E+00 0.00000000E+00
19 11 0.00000000E+00 0.00000000E+00 0.00000000E+00 0.00000000E+00 0.00000000E+00
19 12 0.00000000E+00 0.00000000E+00 0.00000000E+00 0.00000000E+00-6.48750953E-04
19 13-6.48750953E-04-6.54678922E-04 0.00000000E+00 0.00000000E+00 0.00000000E+00
19 14 0.00000000E+00 0.00000000E+00 0.00000000E+00 5.64597897E-04 5.75011087E-04
19 15 5.75011087E-04 0.00000000E+00 0.00000000E+00 0.00000000E+00
20  1-0.00000000E+00-0.00000000E+00-0.00000000E+00-0.00000000E+00-0.00000000E+00
20  2-0.00000000E+00-0.00000000E+00-0.00000000E+00-0.00000000E+00-0.00000000E+00
20  3-0.00000000E+00-0.00000000E+00-0.00000000E+00-0.00000000E+00-0.00000000E+00
20  4-0.00000000E+00-0.00000000E+00-0.00000000E+00-0.00000000E+00-0.00000000E+00
20  5-0.00000000E+00-0.00000000E+00-0.00000000E+00-0.00000000E+00-0.00000000E+00
20  6-1.73538557E-01-0.00000000E+00-0.00000000E+00-0.00000000E+00-0.00000000E+00
20  7-0.00000000E+00-1.42431118E-02-0.00000000E+00-0.00000000E+00-0.00000000E+00
20  8-0.00000000E+00-0.00000000E+00 1.00060063E+00-0.00000000E+00-0.00000000E+00
20  9-0.00000000E+00-0.00000000E+00-0.00000000E+00-0.00000000E+00-0.00000000E+00
20 10-0.00000000E+00-0.00000000E+00-0.00000000E+00-0.00000000E+00-0.00000000E+00
20 11-0.00000000E+00-0.00000000E+00-0.00000000E+00-0.00000000E+00-0.00000000E+00
20 12-0.00000000E+00-0.00000000E+00-0.00000000E+00-0.00000000E+00-0.00000000E+00
20 13-0.00000000E+00-0.00000000E+00-0.00000000E+00 8.67459952E-04-0.00000000E+00
20 14-0.00000000E+00-7.84124488E-04-0.00000000E+00-0.00000000E+00-0.00000000E+00
20 15-0.00000000E+00-0.00000000E+00-1.11806256E-04-0.00000000E+00
21  1-0.00000000E+00-0.00000000E+00-0.00000000E+00-0.00000000E+00-0.00000000E+00
21  2-0.00000000E+00-0.00000000E+00-0.00000000E+00-0.00000000E+00-0.00000000E+00
21  3-0.00000000E+00-0.00000000E+00-0.00000000E+00-0.00000000E+00-0.00000000E+00
21  4-0.00000000E+00-0.00000000E+00-0.00000000E+00-0.00000000E+00-0.00000000E+00
21  5-0.00000000E+00-0.00000000E+00-0.00000000E+00-0.00000000E+00-0.00000000E+00
21  6-0.00000000E+00-1.73538557E-01-0.00000000E+00-0.00000000E+00-0.00000000E+00
21  7-0.00000000E+00-0.00000000E+00-1.42431118E-02-0.00000000E+00-0.00000000E+00
21  8-0.00000000E+00-0.00000000E+00-0.00000000E+00 1.00060063E+00-0.00000000E+00
21  9-0.00000000E+00-0.00000000E+00-0.00000000E+00-0.00000000E+00-0.00000000E+00
21 10-0.00000000E+00-0.00000000E+00-0.00000000E+00-0.00000000E+00-0.00000000E+00
21 11-0.00000000E+00-0.00000000E+00-0.00000000E+00-0.00000000E+00-0.00000000E+00
21 12-0.00000000E+00-0.00000000E+00-0.00000000E+00-0.00000000E+00-0.00000000E+00
21 13-0.00000000E+00-0.00000000E+00-0.00000000E+00-0.00000000E+00-0.00000000E+00
21 14 8.67459952E-04-0.00000000E+00-7.84124488E-04-0.00000000E+00-0.00000000E+00
21 15-0.00000000E+00-1.11806256E-04-0.00000000E+00-0.00000000E+00
22  1 0.00000000E+00 0.00000000E+00 0.00000000E+00 0.00000000E+00 0.00000000E+00
22  2 0.00000000E+00 0.00000000E+00 0.00000000E+00 0.00000000E+00 0.00000000E+00
22  3 0.00000000E+00 0.00000000E+00 0.00000000E+00 0.00000000E+00 0.00000000E+00
22  4 0.00000000E+00 0.00000000E+00 0.00000000E+00 0.00000000E+00 0.00000000E+00
22  5 0.00000000E+00 0.00000000E+00 0.00000000E+00 0.00000000E+00-1.75533214E-01
22  6 0.00000000E+00 0.00000000E+00 0.00000000E+00 0.00000000E+00 0.00000000E+00
22  7-2.08410733E-02 0.00000000E+00 0.00000000E+00 0.00000000E+00 0.00000000E+00
22  8 0.00000000E+00 1.00302637E+00 0.00000000E+00 0.00000000E+00 0.00000000E+00
22  9 0.00000000E+00 0.00000000E+00 0.00000000E+00 0.00000000E+00 0.00000000E+00
22 10 0.00000000E+00 0.00000000E+00 0.00000000E+00 0.00000000E+00 0.00000000E+00
22 11 0.00000000E+00 0.00000000E+00 0.00000000E+00 0.00000000E+00 0.00000000E+00
22 12 0.00000000E+00 0.00000000E+00 0.00000000E+00 0.00000000E+00 0.00000000E+00
22 13 0.00000000E+00 0.00000000E+00 1.60787441E-04 0.00000000E+00 1.60787441E-04
22 14 0.00000000E+00 0.00000000E+00 0.00000000E+00 0.00000000E+00 0.00000000E+00
22 15 0.00000000E+00 0.00000000E+00 0.00000000E+00-4.31437977E-04
23  1 0.00000000E+00 0.00000000E+00 0.00000000E+00 0.00000000E+00 0.00000000E+00
23  2 0.00000000E+00 0.00000000E+00 0.00000000E+00 0.00000000E+00 0.00000000E+00
23  3 0.00000000E+00 0.00000000E+00 0.00000000E+00 0.00000000E+00 0.00000000E+00
23  4 0.00000000E+00 0.00000000E+00 0.00000000E+00 0.00000000E+00 0.00000000E+00
23  5 0.00000000E+00-1.52302287E-01 1.52302287E-01 0.00000000E+00 0.00000000E+00
23  6 0.00000000E+00 0.00000000E+00-5.16465610E-02 5.16465610E-02 0.00000000E+00
23  7 0.00000000E+00 0.00000000E+00 0.00000000E+00 8.81619139E-01-8.81619139E-01
23  8 0.00000000E+00 0.00000000E+00 0.00000000E+00 0.00000000E+00 0.00000000E+00
23  9 0.00000000E+00 0.00000000E+00 0.00000000E+00 0.00000000E+00 0.00000000E+00
23 10 0.00000000E+00 0.00000000E+00 0.00000000E+00 0.00000000E+00 0.00000000E+00
23 11 0.00000000E+00 0.00000000E+00 0.00000000E+00 0.00000000E+00 0.00000000E+00
23 12 0.00000000E+00 0.00000000E+00 0.00000000E+00 0.00000000E+00 4.59657768E-04
23 13-4.59657768E-04 0.00000000E+00 0.00000000E+00 0.00000000E+00 0.00000000E+00
23 14 0.00000000E+00 0.00000000E+00 0.00000000E+00 0.00000000E+00-8.07444089E-04
23 15 8.07444089E-04 0.00000000E+00 0.00000000E+00 0.00000000E+00
24  1-2.81807647E-03-1.97904528E-02 3.43497477E-02-5.42846268E-02 4.38239351E-02
24  2-1.19678711E-02-0.00000000E+00-0.00000000E+00-0.00000000E+00-0.00000000E+00
24  3-0.00000000E+00-0.00000000E+00-0.00000000E+00-0.00000000E+00-0.00000000E+00
24  4-0.00000000E+00-0.00000000E+00-0.00000000E+00-0.00000000E+00-0.00000000E+00
24  5-0.00000000E+00 2.97453916E-01 2.97453916E-01-5.94907832E-01-0.00000000E+00
24  6-0.00000000E+00-0.00000000E+00-5.95916422E-01-5.95916422E-01 1.19183284E+00
24  7-0.00000000E+00-0.00000000E+00-0.00000000E+00 2.80986132E-01 2.80986132E-01
24  8-5.61972264E-01-0.00000000E+00-0.00000000E+00-0.00000000E+00-0.00000000E+00
24  9-0.00000000E+00-0.00000000E+00-0.00000000E+00-0.00000000E+00-0.00000000E+00
24 10-0.00000000E+00-0.00000000E+00-0.00000000E+00-0.00000000E+00-0.00000000E+00
24 11-0.00000000E+00-0.00000000E+00-0.00000000E+00-0.00000000E+00-0.00000000E+00
24 12-0.00000000E+00-0.00000000E+00-0.00000000E+00-0.00000000E+00-1.33637111E-03
24 13-1.33637111E-03-1.29985192E-03-0.00000000E+00-0.00000000E+00-0.00000000E+00
24 14-0.00000000E+00-0.00000000E+00-0.00000000E+00 1.20582336E-03 1.14167303E-03
24 15 1.14167303E-03-0.00000000E+00-0.00000000E+00-0.00000000E+00