 $CONTRL 
     SCFTYP=ROHF 
     MULT=1
     ICHARG=0 
     RUNTYP=ENERGY
     MAXIT=150
     ECP=READ
     ISPHER=1
 $END

 $SYSTEM 
     KDIAG=3
 $END

 $GUESS
    GUESS=HUCKEL
 $END


 $DATA  

C1
Mg 12    0. 0. 0.
S 10
  1  51.71128254   0.000013
  2  22.89220017  -0.000079
  3  10.13420675   0.000388
  4  4.486337960  -0.005557
  5  1.986068450   0.047098
  6  0.879217730  -0.180052
  7  0.389223150  -0.073860
  8  0.172306190   0.237658
  9  0.076278670   0.584777
 10  0.033768000   0.234225
S 1
  1  0.030897000   1.000000  
S 1
  1  0.069571000   1.000000  
S 1
  1  0.156651000   1.000000
P 10
  1  13.15206115   0.000018
  2  6.979475680  -0.000047
  3  3.703836240   0.000578
  4  1.965534880   0.000743
  5  1.043061060  -0.000694
  6  0.553526880  -0.007343
  7  0.293743110   0.015526
  8  0.155882250  -0.006619
  9  0.082722880   0.071634
 10  0.043899000  -0.019276
P 1
  1  0.025392000   1.000000  
P 1
  1  0.064751000   1.000000  
P 1
  1  0.165122000   1.000000
D 1
  1  0.105834000   1.000000  
D 1
  1  0.194029000   1.000000  
D 1
  1  0.355719000   1.000000
F 1 
  1  0.180053000   1.000000  
F 1 
  1  0.357087000   1.000000
G 1
  1  0.306900000   1.000000

 $END

 $ECP
Mg-ccECP GEN 10 2
3
2.000000 1 6.048538 
12.097075 3 2.796989 
-17.108313 2 2.547408 
2
6.428631 2 5.936017 
14.195491 2 1.592891 
2
3.315069 2 1.583969 
4.403025 2 1.077297 
 $END


