 $CONTRL 
     SCFTYP=ROHF
     MULT=5
     ICHARG=0
     RUNTYP=ENERGY 
     MAXIT=150 
     PP=READ
 $END

 $CONTRL 
     ISPHER=1 
 $END

 $SYSTEM 
     KDIAG=3
     mwords=125 
 $END

 $GUESS
    GUESS=MOREAD
    NORB=187
    NORDER=1
    IORDER(5)=10,5,6,7,8,9
 $END

 $DATA  
                                                                                
C1
Fe 26 0. 0. 0.
S    1
  1     84.322332      1.000000 
S    1
  1     44.203528      1.000000 
S    1
  1     23.288963      1.000000 
S    1
  1     13.385163      1.000000 
S    1
  1      7.518052      1.000000 
S    1
  1      4.101835      1.000000 
S    1
  1      2.253571      1.000000 
S    1
  1      1.134924      1.000000 
S    1
  1      0.561550      1.000000 
S    1
  1      0.201961      1.000000 
S    1
  1      0.108698      1.000000 
S    1
  1      0.053619      1.000000 
S    1
  1      0.025823      1.000000 
S    1
  1      0.012         1.000000
P    1
  1    125.092775     1.000000 
P    1
  1     65.211589     1.000000 
P    1
  1     34.437599     1.000000 
P    1
  1     18.930704     1.000000 
P    1
  1     10.873415     1.000000 
P    1
  1     6.012172      1.000000 
P    1
  1     3.372205      1.000000 
P    1
  1     1.768641      1.000000 
P    1
  1     0.914516      1.000000 
P    1
  1     0.460895      1.000000 
P    1
  1     0.204490      1.000000 
P    1
  1     0.074741      1.000000 
P    1
  1     0.035671      1.000000 
P    1
  1     0.017         1.000000
D    1
  1    152.736742     1.000000 
D    1
  1     50.772485     1.000000 
D    1
  1     26.253589     1.000000 
D    1
  1     12.137022     1.000000 
D    1
  1     5.853719      1.000000 
D    1
  1     2.856224      1.000000 
D    1
  1     1.386132      1.000000 
D    1
  1     0.670802      1.000000 
D    1
  1     0.330280      1.000000 
D    1
  1     0.170907      1.000000 
D    1
  1     0.086794      1.000000 
D    1
  1     0.04          1.000000
F    1
  1     0.115778      1.000000 
F    1
  1     0.334367      1.000000
F    1
  1     0.96565       1.000000
F    1
  1     2.788793      1.000000
F    1
  1     8.05402       1.000000 
G    1
  1     0.227726      1.000000
G    1
  1     0.673444      1.000000
G    1
  1     1.99155       1.000000
G    1
  1     5.889532      1.000000

 $END

 $ECP
Fe-STU GEN 10 3
1
0.000000    2 1.000000  
2
253.749588  2 20.930000 
37.922845   2 9.445000  
2
161.036812  2 21.760000 
27.651298   2 9.178000  
2
-24.431276  2 25.900000 
-1.434251   2 8.835000  

 $END


 $VEC   
 1  1 5.02424053E-03-2.15302046E-02 1.30417060E-01-1.61180982E-01-3.15730605E-01
 1  2-5.17957173E-02 4.92555490E-01 5.80616907E-01 1.97344896E-01 6.05285075E-03
 1  3 1.64031244E-03 1.81535414E-04 2.59824687E-04-6.69519531E-05-0.00000000E+00
 1  4-0.00000000E+00-0.00000000E+00-0.00000000E+00-0.00000000E+00-0.00000000E+00
 1  5-0.00000000E+00-0.00000000E+00-0.00000000E+00-0.00000000E+00-0.00000000E+00
 1  6-0.00000000E+00-0.00000000E+00-0.00000000E+00-0.00000000E+00-0.00000000E+00
 1  7-0.00000000E+00-0.00000000E+00-0.00000000E+00-0.00000000E+00-0.00000000E+00
 1  8-0.00000000E+00-0.00000000E+00-0.00000000E+00-0.00000000E+00-0.00000000E+00
 1  9-0.00000000E+00-0.00000000E+00-0.00000000E+00-0.00000000E+00-0.00000000E+00
 1 10-0.00000000E+00-0.00000000E+00-0.00000000E+00-0.00000000E+00-0.00000000E+00
 1 11-0.00000000E+00-0.00000000E+00-0.00000000E+00-0.00000000E+00-0.00000000E+00
 1 12-0.00000000E+00 4.78877682E-07 4.78877682E-07-9.57755364E-07-0.00000000E+00
 1 13-0.00000000E+00-0.00000000E+00 4.65899318E-06 4.65899318E-06-9.31798635E-06
 1 14-0.00000000E+00-0.00000000E+00-0.00000000E+00 9.25541715E-06 9.25541715E-06
 1 15-1.85108343E-05-0.00000000E+00-0.00000000E+00-0.00000000E+00 1.01168732E-04
 1 16 1.01168732E-04-2.02337465E-04-0.00000000E+00-0.00000000E+00-0.00000000E+00
 1 17 6.03484552E-05 6.03484552E-05-1.20696910E-04-0.00000000E+00-0.00000000E+00
 1 18-0.00000000E+00-4.97896110E-04-4.97896110E-04 9.95792221E-04-0.00000000E+00
 1 19-0.00000000E+00-0.00000000E+00-6.48829600E-05-6.48829600E-05 1.29765920E-04
 1 20-0.00000000E+00-0.00000000E+00-0.00000000E+00 9.44007499E-04 9.44007499E-04
 1 21-1.88801500E-03-0.00000000E+00-0.00000000E+00-0.00000000E+00 6.12634514E-04
 1 22 6.12634514E-04-1.22526903E-03-0.00000000E+00-0.00000000E+00-0.00000000E+00
 1 23 1.76541216E-04 1.76541216E-04-3.53082433E-04-0.00000000E+00-0.00000000E+00
 1 24-0.00000000E+00 1.13127798E-05 1.13127798E-05-2.26255595E-05-0.00000000E+00
 1 25-0.00000000E+00-0.00000000E+00 4.55617353E-07 4.55617353E-07-9.11234706E-07
 1 26-0.00000000E+00-0.00000000E+00-0.00000000E+00-0.00000000E+00-0.00000000E+00
 1 27-0.00000000E+00-0.00000000E+00-0.00000000E+00-0.00000000E+00-0.00000000E+00
 1 28-0.00000000E+00-0.00000000E+00-0.00000000E+00-0.00000000E+00-0.00000000E+00
 1 29-0.00000000E+00-0.00000000E+00-0.00000000E+00-0.00000000E+00-0.00000000E+00
 1 30-0.00000000E+00-0.00000000E+00-0.00000000E+00-0.00000000E+00-0.00000000E+00
 1 31-0.00000000E+00-0.00000000E+00-0.00000000E+00-0.00000000E+00-0.00000000E+00
 1 32-0.00000000E+00-0.00000000E+00-0.00000000E+00-0.00000000E+00-0.00000000E+00
 1 33-0.00000000E+00-0.00000000E+00-0.00000000E+00-0.00000000E+00-0.00000000E+00
 1 34-0.00000000E+00-0.00000000E+00-0.00000000E+00-0.00000000E+00-0.00000000E+00
 1 35-0.00000000E+00-0.00000000E+00-0.00000000E+00-0.00000000E+00-0.00000000E+00
 1 36-0.00000000E+00-0.00000000E+00-0.00000000E+00-8.48848289E-06-8.48848289E-06
 1 37-4.49614249E-06-0.00000000E+00-0.00000000E+00-0.00000000E+00-0.00000000E+00
 1 38-0.00000000E+00-0.00000000E+00 1.09620327E-05 3.94900721E-06 3.94900721E-06
 1 39-0.00000000E+00-0.00000000E+00-0.00000000E+00 4.20966887E-04 4.20966887E-04
 1 40 7.39529439E-05-0.00000000E+00-0.00000000E+00-0.00000000E+00-0.00000000E+00
 1 41-0.00000000E+00-0.00000000E+00-6.74525293E-04-6.49536150E-05-6.49536150E-05
 1 42-0.00000000E+00-0.00000000E+00-0.00000000E+00 4.08794336E-04 4.08794336E-04
 1 43 7.97395392E-05-0.00000000E+00-0.00000000E+00-0.00000000E+00-0.00000000E+00
 1 44-0.00000000E+00-0.00000000E+00-6.48060320E-04-7.00360399E-05-7.00360399E-05
 1 45-0.00000000E+00-0.00000000E+00-0.00000000E+00 1.64405623E-04 1.64405623E-04
 1 46 3.44546916E-05-0.00000000E+00-0.00000000E+00-0.00000000E+00-0.00000000E+00
 1 47-0.00000000E+00-0.00000000E+00-2.58536325E-04-3.02619024E-05-3.02619024E-05
 1 48-0.00000000E+00-0.00000000E+00-0.00000000E+00
 2  1 0.00000000E+00 0.00000000E+00 0.00000000E+00 0.00000000E+00 0.00000000E+00
 2  2 0.00000000E+00 0.00000000E+00 0.00000000E+00 0.00000000E+00 0.00000000E+00
 2  3 0.00000000E+00 0.00000000E+00 0.00000000E+00 0.00000000E+00 0.00000000E+00
 2  4 9.53534977E-04 0.00000000E+00 0.00000000E+00-1.42657762E-03 0.00000000E+00
 2  5 0.00000000E+00 1.24579367E-02 0.00000000E+00 0.00000000E+00-3.17670436E-02
 2  6 0.00000000E+00 0.00000000E+00-7.19491955E-02 0.00000000E+00 0.00000000E+00
 2  7 2.92701287E-02 0.00000000E+00 0.00000000E+00 2.73544032E-01 0.00000000E+00
 2  8 0.00000000E+00 4.14412909E-01 0.00000000E+00 0.00000000E+00 3.17025361E-01
 2  9 0.00000000E+00 0.00000000E+00 1.06925392E-01 0.00000000E+00 0.00000000E+00
 2 10 8.22265446E-03 0.00000000E+00 0.00000000E+00 1.13053087E-04 0.00000000E+00
 2 11 0.00000000E+00 4.27310656E-06 0.00000000E+00 0.00000000E+00 1.37941649E-06
 2 12 0.00000000E+00 0.00000000E+00 0.00000000E+00 0.00000000E+00 0.00000000E+00
 2 13 0.00000000E+00 0.00000000E+00 0.00000000E+00 0.00000000E+00 0.00000000E+00
 2 14 0.00000000E+00 0.00000000E+00 0.00000000E+00 0.00000000E+00 0.00000000E+00
 2 15 0.00000000E+00 0.00000000E+00 0.00000000E+00 0.00000000E+00 0.00000000E+00
 2 16 0.00000000E+00 0.00000000E+00 0.00000000E+00 0.00000000E+00 0.00000000E+00
 2 17 0.00000000E+00 0.00000000E+00 0.00000000E+00 0.00000000E+00 0.00000000E+00
 2 18 0.00000000E+00 0.00000000E+00 0.00000000E+00 0.00000000E+00 0.00000000E+00
 2 19 0.00000000E+00 0.00000000E+00 0.00000000E+00 0.00000000E+00 0.00000000E+00
 2 20 0.00000000E+00 0.00000000E+00 0.00000000E+00 0.00000000E+00 0.00000000E+00
 2 21 0.00000000E+00 0.00000000E+00 0.00000000E+00 0.00000000E+00 0.00000000E+00
 2 22 0.00000000E+00 0.00000000E+00 0.00000000E+00 0.00000000E+00 0.00000000E+00
 2 23 0.00000000E+00 0.00000000E+00 0.00000000E+00 0.00000000E+00 0.00000000E+00
 2 24 0.00000000E+00 0.00000000E+00 0.00000000E+00 0.00000000E+00 0.00000000E+00
 2 25 0.00000000E+00 0.00000000E+00 0.00000000E+00 0.00000000E+00 0.00000000E+00
 2 26 0.00000000E+00 0.00000000E+00 0.00000000E+00 0.00000000E+00-2.91040943E-05
 2 27 0.00000000E+00-6.71647440E-06 0.00000000E+00 0.00000000E+00 0.00000000E+00
 2 28 0.00000000E+00 4.57637144E-05 0.00000000E+00 0.00000000E+00 1.06658483E-03
 2 29 0.00000000E+00-1.08227423E-03 0.00000000E+00 0.00000000E+00 0.00000000E+00
 2 30 0.00000000E+00-3.48699475E-04 0.00000000E+00 0.00000000E+00 2.33364907E-03
 2 31 0.00000000E+00-3.88372776E-03 0.00000000E+00 0.00000000E+00 0.00000000E+00
 2 32 0.00000000E+00 7.52808991E-04 0.00000000E+00 0.00000000E+00 1.16803907E-03
 2 33 0.00000000E+00-3.15328466E-03 0.00000000E+00 0.00000000E+00 0.00000000E+00
 2 34 0.00000000E+00 1.58619580E-03 0.00000000E+00 0.00000000E+00 5.66384057E-04
 2 35 0.00000000E+00-9.42275009E-04 0.00000000E+00 0.00000000E+00 0.00000000E+00
 2 36 0.00000000E+00 1.82391057E-04 0.00000000E+00 0.00000000E+00 0.00000000E+00
 2 37 0.00000000E+00 0.00000000E+00 0.00000000E+00 0.00000000E+00 0.00000000E+00
 2 38 0.00000000E+00 0.00000000E+00 0.00000000E+00 0.00000000E+00 0.00000000E+00
 2 39 0.00000000E+00 0.00000000E+00 0.00000000E+00 0.00000000E+00 0.00000000E+00
 2 40 0.00000000E+00 0.00000000E+00 0.00000000E+00 0.00000000E+00 0.00000000E+00
 2 41 0.00000000E+00 0.00000000E+00 0.00000000E+00 0.00000000E+00 0.00000000E+00
 2 42 0.00000000E+00 0.00000000E+00 0.00000000E+00 0.00000000E+00 0.00000000E+00
 2 43 0.00000000E+00 0.00000000E+00 0.00000000E+00 0.00000000E+00 0.00000000E+00
 2 44 0.00000000E+00 0.00000000E+00 0.00000000E+00 0.00000000E+00 0.00000000E+00
 2 45 0.00000000E+00 0.00000000E+00 0.00000000E+00 0.00000000E+00 0.00000000E+00
 2 46 0.00000000E+00 0.00000000E+00 0.00000000E+00 0.00000000E+00 0.00000000E+00
 2 47 0.00000000E+00 0.00000000E+00 0.00000000E+00 0.00000000E+00 0.00000000E+00
 2 48 0.00000000E+00 0.00000000E+00 0.00000000E+00
 3  1 0.00000000E+00 0.00000000E+00 0.00000000E+00 0.00000000E+00 0.00000000E+00
 3  2 0.00000000E+00 0.00000000E+00 0.00000000E+00 0.00000000E+00 0.00000000E+00
 3  3 0.00000000E+00 0.00000000E+00 0.00000000E+00 0.00000000E+00 9.53534977E-04
 3  4 0.00000000E+00 0.00000000E+00-1.42657762E-03 0.00000000E+00 0.00000000E+00
 3  5 1.24579367E-02 0.00000000E+00 0.00000000E+00-3.17670436E-02 0.00000000E+00
 3  6 0.00000000E+00-7.19491955E-02 0.00000000E+00 0.00000000E+00 2.92701287E-02
 3  7 0.00000000E+00 0.00000000E+00 2.73544032E-01 0.00000000E+00 0.00000000E+00
 3  8 4.14412909E-01 0.00000000E+00 0.00000000E+00 3.17025361E-01 0.00000000E+00
 3  9 0.00000000E+00 1.06925392E-01 0.00000000E+00 0.00000000E+00 8.22265446E-03
 3 10 0.00000000E+00 0.00000000E+00 1.13053087E-04 0.00000000E+00 0.00000000E+00
 3 11 4.27310653E-06 0.00000000E+00 0.00000000E+00 1.37941651E-06 0.00000000E+00
 3 12 0.00000000E+00 0.00000000E+00 0.00000000E+00 0.00000000E+00 0.00000000E+00
 3 13 0.00000000E+00 0.00000000E+00 0.00000000E+00 0.00000000E+00 0.00000000E+00
 3 14 0.00000000E+00 0.00000000E+00 0.00000000E+00 0.00000000E+00 0.00000000E+00
 3 15 0.00000000E+00 0.00000000E+00 0.00000000E+00 0.00000000E+00 0.00000000E+00
 3 16 0.00000000E+00 0.00000000E+00 0.00000000E+00 0.00000000E+00 0.00000000E+00
 3 17 0.00000000E+00 0.00000000E+00 0.00000000E+00 0.00000000E+00 0.00000000E+00
 3 18 0.00000000E+00 0.00000000E+00 0.00000000E+00 0.00000000E+00 0.00000000E+00
 3 19 0.00000000E+00 0.00000000E+00 0.00000000E+00 0.00000000E+00 0.00000000E+00
 3 20 0.00000000E+00 0.00000000E+00 0.00000000E+00 0.00000000E+00 0.00000000E+00
 3 21 0.00000000E+00 0.00000000E+00 0.00000000E+00 0.00000000E+00 0.00000000E+00
 3 22 0.00000000E+00 0.00000000E+00 0.00000000E+00 0.00000000E+00 0.00000000E+00
 3 23 0.00000000E+00 0.00000000E+00 0.00000000E+00 0.00000000E+00 0.00000000E+00
 3 24 0.00000000E+00 0.00000000E+00 0.00000000E+00 0.00000000E+00 0.00000000E+00
 3 25 0.00000000E+00 0.00000000E+00 0.00000000E+00 0.00000000E+00 0.00000000E+00
 3 26 0.00000000E+00 0.00000000E+00 0.00000000E+00-2.91040943E-05 0.00000000E+00
 3 27 0.00000000E+00 0.00000000E+00 0.00000000E+00-6.71647440E-06 0.00000000E+00
 3 28 4.57637144E-05 0.00000000E+00 0.00000000E+00 1.06658483E-03 0.00000000E+00
 3 29 0.00000000E+00 0.00000000E+00 0.00000000E+00-1.08227423E-03 0.00000000E+00
 3 30-3.48699475E-04 0.00000000E+00 0.00000000E+00 2.33364907E-03 0.00000000E+00
 3 31 0.00000000E+00 0.00000000E+00 0.00000000E+00-3.88372776E-03 0.00000000E+00
 3 32 7.52808991E-04 0.00000000E+00 0.00000000E+00 1.16803907E-03 0.00000000E+00
 3 33 0.00000000E+00 0.00000000E+00 0.00000000E+00-3.15328466E-03 0.00000000E+00
 3 34 1.58619580E-03 0.00000000E+00 0.00000000E+00 5.66384057E-04 0.00000000E+00
 3 35 0.00000000E+00 0.00000000E+00 0.00000000E+00-9.42275009E-04 0.00000000E+00
 3 36 1.82391057E-04 0.00000000E+00 0.00000000E+00 0.00000000E+00 0.00000000E+00
 3 37 0.00000000E+00 0.00000000E+00 0.00000000E+00 0.00000000E+00 0.00000000E+00
 3 38 0.00000000E+00 0.00000000E+00 0.00000000E+00 0.00000000E+00 0.00000000E+00
 3 39 0.00000000E+00 0.00000000E+00 0.00000000E+00 0.00000000E+00 0.00000000E+00
 3 40 0.00000000E+00 0.00000000E+00 0.00000000E+00 0.00000000E+00 0.00000000E+00
 3 41 0.00000000E+00 0.00000000E+00 0.00000000E+00 0.00000000E+00 0.00000000E+00
 3 42 0.00000000E+00 0.00000000E+00 0.00000000E+00 0.00000000E+00 0.00000000E+00
 3 43 0.00000000E+00 0.00000000E+00 0.00000000E+00 0.00000000E+00 0.00000000E+00
 3 44 0.00000000E+00 0.00000000E+00 0.00000000E+00 0.00000000E+00 0.00000000E+00
 3 45 0.00000000E+00 0.00000000E+00 0.00000000E+00 0.00000000E+00 0.00000000E+00
 3 46 0.00000000E+00 0.00000000E+00 0.00000000E+00 0.00000000E+00 0.00000000E+00
 3 47 0.00000000E+00 0.00000000E+00 0.00000000E+00 0.00000000E+00 0.00000000E+00
 3 48 0.00000000E+00 0.00000000E+00 0.00000000E+00
 4  1-0.00000000E+00-0.00000000E+00-0.00000000E+00-0.00000000E+00-0.00000000E+00
 4  2-0.00000000E+00-0.00000000E+00-0.00000000E+00-0.00000000E+00-0.00000000E+00
 4  3-0.00000000E+00-0.00000000E+00-0.00000000E+00-0.00000000E+00-0.00000000E+00
 4  4-0.00000000E+00 9.53465326E-04-0.00000000E+00-0.00000000E+00-1.42851533E-03
 4  5-0.00000000E+00-0.00000000E+00 1.24649035E-02-0.00000000E+00-0.00000000E+00
 4  6-3.16947611E-02-0.00000000E+00-0.00000000E+00-7.21569776E-02-0.00000000E+00
 4  7-0.00000000E+00 2.87602201E-02-0.00000000E+00-0.00000000E+00 2.73971647E-01
 4  8-0.00000000E+00-0.00000000E+00 4.16493399E-01-0.00000000E+00-0.00000000E+00
 4  9 3.17372476E-01-0.00000000E+00-0.00000000E+00 1.04236235E-01-0.00000000E+00
 4 10-0.00000000E+00 7.25649587E-03-0.00000000E+00-0.00000000E+00 1.40483471E-04
 4 11-0.00000000E+00-0.00000000E+00-2.38685203E-05-0.00000000E+00-0.00000000E+00
 4 12 1.05921048E-05-0.00000000E+00-0.00000000E+00-0.00000000E+00-0.00000000E+00
 4 13-0.00000000E+00-0.00000000E+00-0.00000000E+00-0.00000000E+00-0.00000000E+00
 4 14-0.00000000E+00-0.00000000E+00-0.00000000E+00-0.00000000E+00-0.00000000E+00
 4 15-0.00000000E+00-0.00000000E+00-0.00000000E+00-0.00000000E+00-0.00000000E+00
 4 16-0.00000000E+00-0.00000000E+00-0.00000000E+00-0.00000000E+00-0.00000000E+00
 4 17-0.00000000E+00-0.00000000E+00-0.00000000E+00-0.00000000E+00-0.00000000E+00
 4 18-0.00000000E+00-0.00000000E+00-0.00000000E+00-0.00000000E+00-0.00000000E+00
 4 19-0.00000000E+00-0.00000000E+00-0.00000000E+00-0.00000000E+00-0.00000000E+00
 4 20-0.00000000E+00-0.00000000E+00-0.00000000E+00-0.00000000E+00-0.00000000E+00
 4 21-0.00000000E+00-0.00000000E+00-0.00000000E+00-0.00000000E+00-0.00000000E+00
 4 22-0.00000000E+00-0.00000000E+00-0.00000000E+00-0.00000000E+00-0.00000000E+00
 4 23-0.00000000E+00-0.00000000E+00-0.00000000E+00-0.00000000E+00-0.00000000E+00
 4 24-0.00000000E+00-0.00000000E+00-0.00000000E+00-0.00000000E+00-0.00000000E+00
 4 25-0.00000000E+00-0.00000000E+00-0.00000000E+00-0.00000000E+00-0.00000000E+00
 4 26-0.00000000E+00-0.00000000E+00-0.00000000E+00-0.00000000E+00-0.00000000E+00
 4 27 5.05968568E-05-0.00000000E+00-3.39414033E-05-0.00000000E+00-3.39414033E-05
 4 28-0.00000000E+00-0.00000000E+00-0.00000000E+00-0.00000000E+00-0.00000000E+00
 4 29-4.52213317E-05-0.00000000E+00 3.03353915E-05-0.00000000E+00 3.03353915E-05
 4 30-0.00000000E+00-0.00000000E+00-0.00000000E+00-0.00000000E+00-0.00000000E+00
 4 31 1.94292257E-03-0.00000000E+00-1.30335208E-03-0.00000000E+00-1.30335208E-03
 4 32-0.00000000E+00-0.00000000E+00-0.00000000E+00-0.00000000E+00-0.00000000E+00
 4 33 2.60500851E-03-0.00000000E+00-1.74749283E-03-0.00000000E+00-1.74749283E-03
 4 34-0.00000000E+00-0.00000000E+00-0.00000000E+00-0.00000000E+00-0.00000000E+00
 4 35 4.72378183E-04-0.00000000E+00-3.16880919E-04-0.00000000E+00-3.16880919E-04
 4 36-0.00000000E+00-0.00000000E+00-0.00000000E+00-0.00000000E+00-0.00000000E+00
 4 37-0.00000000E+00-0.00000000E+00-0.00000000E+00-0.00000000E+00-0.00000000E+00
 4 38-0.00000000E+00-0.00000000E+00-0.00000000E+00-0.00000000E+00-0.00000000E+00
 4 39-0.00000000E+00-0.00000000E+00-0.00000000E+00-0.00000000E+00-0.00000000E+00
 4 40-0.00000000E+00-0.00000000E+00-0.00000000E+00-0.00000000E+00-0.00000000E+00
 4 41-0.00000000E+00-0.00000000E+00-0.00000000E+00-0.00000000E+00-0.00000000E+00
 4 42-0.00000000E+00-0.00000000E+00-0.00000000E+00-0.00000000E+00-0.00000000E+00
 4 43-0.00000000E+00-0.00000000E+00-0.00000000E+00-0.00000000E+00-0.00000000E+00
 4 44-0.00000000E+00-0.00000000E+00-0.00000000E+00-0.00000000E+00-0.00000000E+00
 4 45-0.00000000E+00-0.00000000E+00-0.00000000E+00-0.00000000E+00-0.00000000E+00
 4 46-0.00000000E+00-0.00000000E+00-0.00000000E+00-0.00000000E+00-0.00000000E+00
 4 47-0.00000000E+00-0.00000000E+00-0.00000000E+00-0.00000000E+00-0.00000000E+00
 4 48-0.00000000E+00-0.00000000E+00-0.00000000E+00
 5  1 0.00000000E+00 0.00000000E+00 0.00000000E+00 0.00000000E+00 0.00000000E+00
 5  2 0.00000000E+00 0.00000000E+00 0.00000000E+00 0.00000000E+00 0.00000000E+00
 5  3 0.00000000E+00 0.00000000E+00 0.00000000E+00 0.00000000E+00 0.00000000E+00
 5  4 0.00000000E+00 0.00000000E+00 0.00000000E+00 0.00000000E+00 0.00000000E+00
 5  5 0.00000000E+00 0.00000000E+00 0.00000000E+00 0.00000000E+00 0.00000000E+00
 5  6 0.00000000E+00 0.00000000E+00 0.00000000E+00 0.00000000E+00 0.00000000E+00
 5  7 0.00000000E+00 0.00000000E+00 0.00000000E+00 0.00000000E+00 0.00000000E+00
 5  8 0.00000000E+00 0.00000000E+00 0.00000000E+00 0.00000000E+00 0.00000000E+00
 5  9 0.00000000E+00 0.00000000E+00 0.00000000E+00 0.00000000E+00 0.00000000E+00
 5 10 0.00000000E+00 0.00000000E+00 0.00000000E+00 0.00000000E+00 0.00000000E+00
 5 11 0.00000000E+00 0.00000000E+00 0.00000000E+00 0.00000000E+00 0.00000000E+00
 5 12 0.00000000E+00 1.00614976E-03-1.00614976E-03 0.00000000E+00 0.00000000E+00
 5 13 0.00000000E+00 0.00000000E+00 6.09923801E-03-6.09923801E-03 0.00000000E+00
 5 14 0.00000000E+00 0.00000000E+00 0.00000000E+00 2.42439534E-02-2.42439534E-02
 5 15 0.00000000E+00 0.00000000E+00 0.00000000E+00 0.00000000E+00 7.45146472E-02
 5 16-7.45146472E-02 0.00000000E+00 0.00000000E+00 0.00000000E+00 0.00000000E+00
 5 17 1.52072249E-01-1.52072249E-01 0.00000000E+00 0.00000000E+00 0.00000000E+00
 5 18 0.00000000E+00 2.34599163E-01-2.34599163E-01 0.00000000E+00 0.00000000E+00
 5 19 0.00000000E+00 0.00000000E+00 2.61269579E-01-2.61269579E-01 0.00000000E+00
 5 20 0.00000000E+00 0.00000000E+00 0.00000000E+00 2.27612600E-01-2.27612600E-01
 5 21 0.00000000E+00 0.00000000E+00 0.00000000E+00 0.00000000E+00 1.37638940E-01
 5 22-1.37638940E-01 0.00000000E+00 0.00000000E+00 0.00000000E+00 0.00000000E+00
 5 23 5.28314946E-02-5.28314946E-02 0.00000000E+00 0.00000000E+00 0.00000000E+00
 5 24 0.00000000E+00 8.05819227E-03-8.05819227E-03 0.00000000E+00 0.00000000E+00
 5 25 0.00000000E+00 0.00000000E+00-3.32278482E-05 3.32278482E-05 0.00000000E+00
 5 26 0.00000000E+00 0.00000000E+00 0.00000000E+00 0.00000000E+00 0.00000000E+00
 5 27 0.00000000E+00 0.00000000E+00 0.00000000E+00 0.00000000E+00 0.00000000E+00
 5 28 0.00000000E+00 0.00000000E+00 0.00000000E+00 0.00000000E+00 0.00000000E+00
 5 29 0.00000000E+00 0.00000000E+00 0.00000000E+00 0.00000000E+00 0.00000000E+00
 5 30 0.00000000E+00 0.00000000E+00 0.00000000E+00 0.00000000E+00 0.00000000E+00
 5 31 0.00000000E+00 0.00000000E+00 0.00000000E+00 0.00000000E+00 0.00000000E+00
 5 32 0.00000000E+00 0.00000000E+00 0.00000000E+00 0.00000000E+00 0.00000000E+00
 5 33 0.00000000E+00 0.00000000E+00 0.00000000E+00 0.00000000E+00 0.00000000E+00
 5 34 0.00000000E+00 0.00000000E+00 0.00000000E+00 0.00000000E+00 0.00000000E+00
 5 35 0.00000000E+00 0.00000000E+00 0.00000000E+00 0.00000000E+00 0.00000000E+00
 5 36 0.00000000E+00 0.00000000E+00 0.00000000E+00-9.29131183E-05 9.29131183E-05
 5 37 0.00000000E+00 0.00000000E+00 0.00000000E+00 0.00000000E+00 0.00000000E+00
 5 38 0.00000000E+00 0.00000000E+00 0.00000000E+00 1.63213054E-04-1.63213054E-04
 5 39 0.00000000E+00 0.00000000E+00 0.00000000E+00-5.51821732E-04 5.51821732E-04
 5 40 0.00000000E+00 0.00000000E+00 0.00000000E+00 0.00000000E+00 0.00000000E+00
 5 41 0.00000000E+00 0.00000000E+00 0.00000000E+00 9.69341163E-04-9.69341163E-04
 5 42 0.00000000E+00 0.00000000E+00 0.00000000E+00-6.36424501E-04 6.36424501E-04
 5 43 0.00000000E+00 0.00000000E+00 0.00000000E+00 0.00000000E+00 0.00000000E+00
 5 44 0.00000000E+00 0.00000000E+00 0.00000000E+00 1.11795609E-03-1.11795609E-03
 5 45 0.00000000E+00 0.00000000E+00 0.00000000E+00-2.15743933E-04 2.15743933E-04
 5 46 0.00000000E+00 0.00000000E+00 0.00000000E+00 0.00000000E+00 0.00000000E+00
 5 47 0.00000000E+00 0.00000000E+00 0.00000000E+00 3.78980137E-04-3.78980137E-04
 5 48 0.00000000E+00 0.00000000E+00 0.00000000E+00
 6  1-1.43556165E-05 6.09632051E-05-3.10418706E-04 2.70361452E-04 9.45702173E-04
 6  2 2.96678005E-04-1.24663686E-03-3.03454574E-03-4.61210107E-03 4.09249340E-03
 6  3 1.14737329E-02 4.60834301E-03-2.00114606E-05 2.75349958E-05-0.00000000E+00
 6  4-0.00000000E+00-0.00000000E+00-0.00000000E+00-0.00000000E+00-0.00000000E+00
 6  5-0.00000000E+00-0.00000000E+00-0.00000000E+00-0.00000000E+00-0.00000000E+00
 6  6-0.00000000E+00-0.00000000E+00-0.00000000E+00-0.00000000E+00-0.00000000E+00
 6  7-0.00000000E+00-0.00000000E+00-0.00000000E+00-0.00000000E+00-0.00000000E+00
 6  8-0.00000000E+00-0.00000000E+00-0.00000000E+00-0.00000000E+00-0.00000000E+00
 6  9-0.00000000E+00-0.00000000E+00-0.00000000E+00-0.00000000E+00-0.00000000E+00
 6 10-0.00000000E+00-0.00000000E+00-0.00000000E+00-0.00000000E+00-0.00000000E+00
 6 11-0.00000000E+00-0.00000000E+00-0.00000000E+00-0.00000000E+00-0.00000000E+00
 6 12-0.00000000E+00-5.95854881E-04-5.95854881E-04 1.19170976E-03-0.00000000E+00
 6 13-0.00000000E+00-0.00000000E+00-3.60950240E-03-3.60950240E-03 7.21900480E-03
 6 14-0.00000000E+00-0.00000000E+00-0.00000000E+00-1.43460290E-02-1.43460290E-02
 6 15 2.86920580E-02-0.00000000E+00-0.00000000E+00-0.00000000E+00-4.40528684E-02
 6 16-4.40528684E-02 8.81057368E-02-0.00000000E+00-0.00000000E+00-0.00000000E+00
 6 17-9.03683328E-02-9.03683328E-02 1.80736666E-01-0.00000000E+00-0.00000000E+00
 6 18-0.00000000E+00-1.40477380E-01-1.40477380E-01 2.80954759E-01-0.00000000E+00
 6 19-0.00000000E+00-0.00000000E+00-1.55559473E-01-1.55559473E-01 3.11118945E-01
 6 20-0.00000000E+00-0.00000000E+00-0.00000000E+00-1.29523720E-01-1.29523720E-01
 6 21 2.59047441E-01-0.00000000E+00-0.00000000E+00-0.00000000E+00-7.02899076E-02
 6 22-7.02899076E-02 1.40579815E-01-0.00000000E+00-0.00000000E+00-0.00000000E+00
 6 23-2.18445204E-02-2.18445204E-02 4.36890408E-02-0.00000000E+00-0.00000000E+00
 6 24-0.00000000E+00-2.24438994E-03-2.24438994E-03 4.48877988E-03-0.00000000E+00
 6 25-0.00000000E+00-0.00000000E+00 7.58564814E-06 7.58564814E-06-1.51712963E-05
 6 26-0.00000000E+00-0.00000000E+00-0.00000000E+00-0.00000000E+00-0.00000000E+00
 6 27-0.00000000E+00-0.00000000E+00-0.00000000E+00-0.00000000E+00-0.00000000E+00
 6 28-0.00000000E+00-0.00000000E+00-0.00000000E+00-0.00000000E+00-0.00000000E+00
 6 29-0.00000000E+00-0.00000000E+00-0.00000000E+00-0.00000000E+00-0.00000000E+00
 6 30-0.00000000E+00-0.00000000E+00-0.00000000E+00-0.00000000E+00-0.00000000E+00
 6 31-0.00000000E+00-0.00000000E+00-0.00000000E+00-0.00000000E+00-0.00000000E+00
 6 32-0.00000000E+00-0.00000000E+00-0.00000000E+00-0.00000000E+00-0.00000000E+00
 6 33-0.00000000E+00-0.00000000E+00-0.00000000E+00-0.00000000E+00-0.00000000E+00
 6 34-0.00000000E+00-0.00000000E+00-0.00000000E+00-0.00000000E+00-0.00000000E+00
 6 35-0.00000000E+00-0.00000000E+00-0.00000000E+00-0.00000000E+00-0.00000000E+00
 6 36-0.00000000E+00-0.00000000E+00-0.00000000E+00 1.49936826E-04 1.49936826E-04
 6 37 3.85051234E-04-0.00000000E+00-0.00000000E+00-0.00000000E+00-0.00000000E+00
 6 38-0.00000000E+00-0.00000000E+00 7.48123279E-05-3.38194374E-04-3.38194374E-04
 6 39-0.00000000E+00-0.00000000E+00-0.00000000E+00 1.48019287E-03 1.48019287E-03
 6 40 2.30769596E-03-0.00000000E+00-0.00000000E+00-0.00000000E+00-0.00000000E+00
 6 41-0.00000000E+00-0.00000000E+00-5.73263998E-04-2.02687259E-03-2.02687259E-03
 6 42-0.00000000E+00-0.00000000E+00-0.00000000E+00 2.06498981E-03 2.06498981E-03
 6 43 2.73726092E-03-0.00000000E+00-0.00000000E+00-0.00000000E+00-0.00000000E+00
 6 44-0.00000000E+00-0.00000000E+00-1.22323885E-03-2.40416382E-03-2.40416382E-03
 6 45-0.00000000E+00-0.00000000E+00-0.00000000E+00 7.42601375E-04 7.42601375E-04
 6 46 9.76488976E-04-0.00000000E+00-0.00000000E+00-0.00000000E+00-0.00000000E+00
 6 47-0.00000000E+00-0.00000000E+00-4.46808429E-04-8.57660096E-04-8.57660096E-04
 6 48-0.00000000E+00-0.00000000E+00-0.00000000E+00
 7  1-0.00000000E+00-0.00000000E+00-0.00000000E+00-0.00000000E+00-0.00000000E+00
 7  2-0.00000000E+00-0.00000000E+00-0.00000000E+00-0.00000000E+00-0.00000000E+00
 7  3-0.00000000E+00-0.00000000E+00-0.00000000E+00-0.00000000E+00-0.00000000E+00
 7  4-0.00000000E+00-0.00000000E+00-0.00000000E+00-0.00000000E+00-0.00000000E+00
 7  5-0.00000000E+00-0.00000000E+00-0.00000000E+00-0.00000000E+00-0.00000000E+00
 7  6-0.00000000E+00-0.00000000E+00-0.00000000E+00-0.00000000E+00-0.00000000E+00
 7  7-0.00000000E+00-0.00000000E+00-0.00000000E+00-0.00000000E+00-0.00000000E+00
 7  8-0.00000000E+00-0.00000000E+00-0.00000000E+00-0.00000000E+00-0.00000000E+00
 7  9-0.00000000E+00-0.00000000E+00-0.00000000E+00-0.00000000E+00-0.00000000E+00
 7 10-0.00000000E+00-0.00000000E+00-0.00000000E+00-0.00000000E+00-0.00000000E+00
 7 11-0.00000000E+00-0.00000000E+00-0.00000000E+00-0.00000000E+00-0.00000000E+00
 7 12-0.00000000E+00-0.00000000E+00-0.00000000E+00-0.00000000E+00-0.00000000E+00
 7 13-0.00000000E+00 1.19025570E-03-0.00000000E+00-0.00000000E+00-0.00000000E+00
 7 14-0.00000000E+00-0.00000000E+00 7.21045882E-03-0.00000000E+00-0.00000000E+00
 7 15-0.00000000E+00-0.00000000E+00-0.00000000E+00 2.86584544E-02-0.00000000E+00
 7 16-0.00000000E+00-0.00000000E+00-0.00000000E+00-0.00000000E+00 8.80021459E-02
 7 17-0.00000000E+00-0.00000000E+00-0.00000000E+00-0.00000000E+00-0.00000000E+00
 7 18 1.80474870E-01-0.00000000E+00-0.00000000E+00-0.00000000E+00-0.00000000E+00
 7 19-0.00000000E+00 2.80461832E-01-0.00000000E+00-0.00000000E+00-0.00000000E+00
 7 20-0.00000000E+00-0.00000000E+00 3.10638078E-01-0.00000000E+00-0.00000000E+00
 7 21-0.00000000E+00-0.00000000E+00-0.00000000E+00 2.59285355E-01-0.00000000E+00
 7 22-0.00000000E+00-0.00000000E+00-0.00000000E+00-0.00000000E+00 1.41706556E-01
 7 23-0.00000000E+00-0.00000000E+00-0.00000000E+00-0.00000000E+00-0.00000000E+00
 7 24 4.46187029E-02-0.00000000E+00-0.00000000E+00-0.00000000E+00-0.00000000E+00
 7 25-0.00000000E+00 4.66621812E-03-0.00000000E+00-0.00000000E+00-0.00000000E+00
 7 26-0.00000000E+00-0.00000000E+00-2.21738395E-05-0.00000000E+00-0.00000000E+00
 7 27-0.00000000E+00-0.00000000E+00-0.00000000E+00-0.00000000E+00-0.00000000E+00
 7 28-0.00000000E+00-0.00000000E+00-0.00000000E+00-0.00000000E+00-0.00000000E+00
 7 29-0.00000000E+00-0.00000000E+00-0.00000000E+00-0.00000000E+00-0.00000000E+00
 7 30-0.00000000E+00-0.00000000E+00-0.00000000E+00-0.00000000E+00-0.00000000E+00
 7 31-0.00000000E+00-0.00000000E+00-0.00000000E+00-0.00000000E+00-0.00000000E+00
 7 32-0.00000000E+00-0.00000000E+00-0.00000000E+00-0.00000000E+00-0.00000000E+00
 7 33-0.00000000E+00-0.00000000E+00-0.00000000E+00-0.00000000E+00-0.00000000E+00
 7 34-0.00000000E+00-0.00000000E+00-0.00000000E+00-0.00000000E+00-0.00000000E+00
 7 35-0.00000000E+00-0.00000000E+00-0.00000000E+00-0.00000000E+00-0.00000000E+00
 7 36-0.00000000E+00-0.00000000E+00-0.00000000E+00-0.00000000E+00-0.00000000E+00
 7 37-0.00000000E+00-0.00000000E+00-0.00000000E+00-0.00000000E+00-3.42557831E-04
 7 38-0.00000000E+00 4.37103681E-04-0.00000000E+00-0.00000000E+00-0.00000000E+00
 7 39-1.26846568E-04-0.00000000E+00-0.00000000E+00-0.00000000E+00-0.00000000E+00
 7 40-0.00000000E+00-0.00000000E+00-0.00000000E+00-0.00000000E+00-2.40399176E-03
 7 41-0.00000000E+00 2.62703669E-03-0.00000000E+00-0.00000000E+00-0.00000000E+00
 7 42-2.99246188E-04-0.00000000E+00-0.00000000E+00-0.00000000E+00-0.00000000E+00
 7 43-0.00000000E+00-0.00000000E+00-0.00000000E+00-0.00000000E+00-3.03948964E-03
 7 44-0.00000000E+00 3.12601701E-03-0.00000000E+00-0.00000000E+00-0.00000000E+00
 7 45-1.16088646E-04-0.00000000E+00-0.00000000E+00-0.00000000E+00-0.00000000E+00
 7 46-0.00000000E+00-0.00000000E+00-0.00000000E+00-0.00000000E+00-1.08226850E-03
 7 47-0.00000000E+00 1.11230259E-03-0.00000000E+00-0.00000000E+00-0.00000000E+00
 7 48-4.02949508E-05-0.00000000E+00-0.00000000E+00
 8  1-0.00000000E+00-0.00000000E+00-0.00000000E+00-0.00000000E+00-0.00000000E+00
 8  2-0.00000000E+00-0.00000000E+00-0.00000000E+00-0.00000000E+00-0.00000000E+00
 8  3-0.00000000E+00-0.00000000E+00-0.00000000E+00-0.00000000E+00-0.00000000E+00
 8  4-0.00000000E+00-0.00000000E+00-0.00000000E+00-0.00000000E+00-0.00000000E+00
 8  5-0.00000000E+00-0.00000000E+00-0.00000000E+00-0.00000000E+00-0.00000000E+00