 $CONTRL 
     SCFTYP=ROHF
     MULT=5 
     ICHARG=0 
     RUNTYP=ENERGY 
     MAXIT=150 
     PP=READ
 $END

 $CONTRL 
     ISPHER=1 
 $END

 $SYSTEM 
     KDIAG=3
     mwords=125 
 $END

 $GUESS
    GUESS=MOREAD
    NORB=37
    NORDER=1
    IORDER(5)=10,5,6,7,8,9
 $END

 $DATA  
                                                                                
C1
Fe 26 0. 0. 0.
S    13
  1     84.322332       0.000785
  2     44.203528       -0.012781
  3     23.288963       0.104635
  4     13.385163       -0.119385
  5      7.518052       -0.339804
  6      4.101835       -0.049994
  7      2.253571       0.476955
  8      1.134924       0.593222
  9      0.561550       0.200151
  10     0.201961       0.008591
  11     0.108698       -0.002188
  12     0.053619       0.000677
  13     0.025823       -0.000144
S    13
  1     84.322332      -0.000162
  2     44.203528      0.002921
  3     23.288963      -0.025466
  4     13.385163      0.031182
  5      7.518052      0.086849
  6      4.101835      0.006846
  7      2.253571      -0.131856
  8      1.134924      -0.227746
  9      0.561550      -0.173079
  10     0.201961      0.136142
  11     0.108698      0.434013
  12     0.053619      0.477555
  13     0.025823      0.128804
S    13
  1     84.322332      0.000002
  2     44.203528      0.004103
  3     23.288963      -0.046840
  4     13.385163      0.052833
  5      7.518052      0.218094
  6      4.101835      -0.044999
  7      2.253571      -0.287386
  8      1.134924      -0.713220
  9      0.561550      0.249174
  10     0.201961      1.299872
  11     0.108698      0.192119
  12     0.053619      -0.658616
  13     0.025823      -0.521047
S    13
  1     84.322332      0.000012
  2     44.203528      0.007598
  3     23.288963      -0.094133
  4     13.385163      0.127655
  5      7.518052      0.435598
  6      4.101835      -0.147911
  7      2.253571      -1.084477
  8      1.134924      -0.887003
  9      0.561550      2.449946
  10     0.201961      0.167976
  11     0.108698      -2.114668
  12     0.053619      0.452579
  13     0.025823      0.801444
S    13
  1     84.322332      0.003301
  2     44.203528      -0.029197
  3     23.288963      0.213227
  4     13.385163      -0.408109
  5      7.518052      -0.385651
  6      4.101835      0.168093
  7      2.253571      3.102529
  8      1.134924      -3.360446
  9      0.561550      -0.531619
  10     0.201961      4.493981
  11     0.108698      -3.689750
  12     0.053619      -0.510604
  13     0.025823      1.301021
S    1
  1      0.025823      1.000000 
S    1
  1      0.012         1.000000
P    13
  1    125.092775     0.000056
  2     65.211589     -0.000572
  3     34.437599     0.007388
  4     18.930704     -0.028481
  5     10.873415     -0.063005
  6     6.012172      0.024855
  7     3.372205      0.277474
  8     1.768641      0.425386
  9     0.914516      0.314145
  10    0.460895      0.090422
  11    0.204490      0.006977
  12    0.074741      0.001154
  13    0.035671      0.000303
P    13
  1    125.092775     0.000025
  2     65.211589     -0.000070
  3     34.437599     -0.001042
  4     18.930704     0.005127
  5     10.873415     0.018404
  6     6.012172      -0.014692
  7     3.372205      -0.061307
  8     1.768641      -0.128638
  9     0.914516      -0.070637
  10    0.460895      -0.016314
  11    0.204490      0.380702
  12    0.074741      0.523071
  13    0.035671      0.235765
P    13
  1    125.092775     -0.000197
  2     65.211589     0.001251
  3     34.437599     -0.009154
  4     18.930704     0.038201
  5     10.873415     0.043097
  6     6.012172      -0.029475
  7     3.372205      -0.426996
  8     1.768641      -0.394840
  9     0.914516      0.077230
  10    0.460895      1.119881
  11    0.204490      -0.066494
  12    0.074741      -0.721583
  13    0.035671      -0.005695
P    13
  1    125.092775     0.000264
  2     65.211589     -0.001076
  3     34.437599     -0.002591
  4     18.930704     0.035519
  5     10.873415     0.119554
  6     6.012172      -0.204714
  7     3.372205      -0.760627
  8     1.768641      -0.262740
  9     0.914516      1.779030
  10    0.460895      -0.462742
  11    0.204490      -1.241030
  12    0.074741      0.940987
  13    0.035671      0.083496
P    13
  1    125.092775     -0.000084
  2     65.211589     0.000768
  3     34.437599     -0.009485
  4     18.930704     0.088062
  5     10.873415     0.156191
  6     6.012172      -0.619166
  7     3.372205      -1.385534
  8     1.768641      2.492125
  9     0.914516      0.008076
  10    0.460895      -2.499515
  11    0.204490      2.265576
  12    0.074741      -0.748342
  13    0.035671      -0.211598
P    13
  1    125.092775     -0.002544
  2     65.211589     0.013040
  3     34.437599     -0.039444
  4     18.930704     -0.024594
  5     10.873415     -0.521571
  6     6.012172      2.739993
  7     3.372205      -1.742649
  8     1.768641      -2.844006
  9     0.914516      5.870826
  10    0.460895      -4.902306
  11    0.204490      2.136176
  12    0.074741      -0.121626
  13    0.035671      -0.486219
P    1
  1     0.035671      1.000000
P    1
  1     0.017         1.000000
D    11
  1    152.736742     0.000029
  2     50.772485     0.005238
  3     26.253589     0.029325
  4     12.137022     0.074901
  5     5.853719      0.163411
  6     2.856224      0.251057
  7     1.386132      0.287603
  8     0.670802      0.251862
  9     0.330280      0.186736
  10    0.170907      0.093570
  11    0.086794      0.073811
D    11
  1    152.736742     -0.000026
  2     50.772485     -0.006329
  3     26.253589     -0.034398
  4     12.137022     -0.091765
  5     5.853719      -0.201592
  6     2.856224      -0.283930
  7     1.386132      -0.161981
  8     0.670802      0.128822
  9     0.330280      0.360160
  10    0.170907      0.277592
  11    0.086794      0.261403
D    11
  1    152.736742     0.000051
  2     50.772485     0.008769
  3     26.253589     0.047921
  4     12.137022     0.132475
  5     5.853719      0.297279
  6     2.856224      0.275018
  7     1.386132      -0.222842
  8     0.670802      -0.619067
  9     0.330280      -0.076290
  10    0.170907      0.256056
  11    0.086794      0.541482
D    11
  1    152.736742     -0.000096
  2     50.772485     -0.012144
  3     26.253589     -0.066971
  4     12.137022     -0.196025
  5     5.853719      -0.469003
  6     2.856224      0.046560
  7     1.386132      0.985940
  8     0.670802      -0.220435
  9     0.330280      -0.752482
  10    0.170907      -0.111123
  11    0.086794      0.753100
D    11
  1    152.736742     -0.000032
  2     50.772485     -0.016411
  3     26.253589     -0.081036
  4     12.137022     -0.292641
  5     5.853719      -0.575819
  6     2.856224      1.151156
  7     1.386132      0.168963
  8     0.670802      -1.489545
  9     0.330280      0.741536
  10    0.170907      0.979279
  11    0.086794      -1.044905
D    1
  1     0.086794      1.000000
D    1
  1     0.04          1.000000
F    1
  1     0.115778      1.000000 
F    1
  1     0.334367      1.000000
F    1
  1     0.96565       1.000000
F    1
  1     2.788793      1.000000
F    1
  1     8.05402       1.000000 
G    1
  1     0.227726      1.000000
G    1
  1     0.673444      1.000000
G    1
  1     1.99155       1.000000
G    1
  1     5.889532      1.000000

 $END

 $ECP
Fe-CCECP GEN 10 2
4
16.000                  1 2.32209171361153e+01 
371.5346741778448       3 2.35471467972070e+01 
-1.81226034452083e+02   2 2.34725634460779e+01 
-2.37305236140397e+00   2 9.85238815041471e+00 
2
2.77500325474967e+02    2 2.22106269743296e+01  
4.62049558527338e+01    2 9.51515800919325e+00  
2
1.94998750566171e+02    2 2.45700087184633e+01  
3.16794513291187e+01    2 8.86648776669055e+00  

 $END


 $VEC   
 1  1 1.00001633E+00 2.54854331E-03 7.61228742E-04 3.35195902E-04-1.84206432E-04
 1  2-1.44133907E-04 6.76287931E-05 0.00000000E+00 0.00000000E+00 0.00000000E+00
 1  3 0.00000000E+00 0.00000000E+00 0.00000000E+00 0.00000000E+00 0.00000000E+00
 1  4 0.00000000E+00 0.00000000E+00 0.00000000E+00 0.00000000E+00 0.00000000E+00
 1  5 0.00000000E+00 0.00000000E+00 0.00000000E+00 0.00000000E+00 0.00000000E+00
 1  6 0.00000000E+00 0.00000000E+00 0.00000000E+00 0.00000000E+00 0.00000000E+00
 1  7 0.00000000E+00 1.16742517E-03 1.16742517E-03-2.33485033E-03 0.00000000E+00
 1  8 0.00000000E+00 0.00000000E+00 1.63975370E-03 1.63975370E-03-3.27950741E-03
 1  9 0.00000000E+00 0.00000000E+00 0.00000000E+00 1.29934403E-04 1.29934403E-04
 1 10-2.59868806E-04 0.00000000E+00 0.00000000E+00 0.00000000E+00-4.16951998E-05
 1 11-4.16951998E-05 8.33903995E-05 0.00000000E+00 0.00000000E+00 0.00000000E+00
 1 12-3.55833888E-04-3.55833888E-04 7.11667776E-04 0.00000000E+00 0.00000000E+00
 1 13 0.00000000E+00-9.60754318E-04-9.60754318E-04 1.92150864E-03 0.00000000E+00
 1 14 0.00000000E+00 0.00000000E+00 1.59967035E-05 1.59967035E-05-3.19934069E-05
 1 15 0.00000000E+00 0.00000000E+00 0.00000000E+00 0.00000000E+00 0.00000000E+00
 1 16 0.00000000E+00 0.00000000E+00 0.00000000E+00 0.00000000E+00 0.00000000E+00
 1 17 0.00000000E+00 0.00000000E+00 0.00000000E+00 0.00000000E+00 0.00000000E+00
 1 18 0.00000000E+00 0.00000000E+00 0.00000000E+00 0.00000000E+00 0.00000000E+00
 1 19 0.00000000E+00 0.00000000E+00 0.00000000E+00 0.00000000E+00 0.00000000E+00
 1 20 0.00000000E+00 0.00000000E+00 0.00000000E+00 0.00000000E+00 0.00000000E+00
 1 21 0.00000000E+00 0.00000000E+00 0.00000000E+00 0.00000000E+00 0.00000000E+00
 1 22 0.00000000E+00 0.00000000E+00 0.00000000E+00 0.00000000E+00 0.00000000E+00
 1 23 0.00000000E+00 0.00000000E+00 0.00000000E+00 0.00000000E+00 0.00000000E+00
 1 24 0.00000000E+00 0.00000000E+00 0.00000000E+00 0.00000000E+00 0.00000000E+00
 1 25 0.00000000E+00 0.00000000E+00 0.00000000E+00-7.45644795E-06-7.45644795E-06
 1 26-4.40080842E-06 0.00000000E+00 0.00000000E+00 0.00000000E+00 0.00000000E+00
 1 27 0.00000000E+00 0.00000000E+00 9.23287225E-06 3.86527433E-06 3.86527433E-06
 1 28 0.00000000E+00 0.00000000E+00 0.00000000E+00 4.29768261E-04 4.29768261E-04
 1 29 7.55330564E-05 0.00000000E+00 0.00000000E+00 0.00000000E+00 0.00000000E+00
 1 30 0.00000000E+00 0.00000000E+00-6.88598135E-04-6.63414438E-05-6.63414438E-05
 1 31 0.00000000E+00 0.00000000E+00 0.00000000E+00 4.07991271E-04 4.07991271E-04
 1 32 7.96264341E-05 0.00000000E+00 0.00000000E+00 0.00000000E+00 0.00000000E+00
 1 33 0.00000000E+00 0.00000000E+00-6.46748981E-04-6.99366986E-05-6.99366986E-05
 1 34 0.00000000E+00 0.00000000E+00 0.00000000E+00 1.64202094E-04 1.64202094E-04
 1 35 3.44072417E-05 0.00000000E+00 0.00000000E+00 0.00000000E+00 0.00000000E+00
 1 36 0.00000000E+00 0.00000000E+00-2.58220477E-04-3.02202267E-05-3.02202267E-05
 1 37 0.00000000E+00 0.00000000E+00 0.00000000E+00
 2  1-0.00000000E+00-0.00000000E+00-0.00000000E+00-0.00000000E+00-0.00000000E+00
 2  2-0.00000000E+00-0.00000000E+00-0.00000000E+00 1.00040339E+00-0.00000000E+00
 2  3-0.00000000E+00 1.44605414E-02-0.00000000E+00-0.00000000E+00 1.41110216E-02
 2  4-0.00000000E+00-0.00000000E+00 1.08972355E-03-0.00000000E+00-0.00000000E+00
 2  5-1.13510557E-03-0.00000000E+00-0.00000000E+00 1.06759778E-04-0.00000000E+00
 2  6-0.00000000E+00-4.11229471E-03-0.00000000E+00-0.00000000E+00 7.30291584E-05
 2  7-0.00000000E+00-0.00000000E+00-0.00000000E+00-0.00000000E+00-0.00000000E+00
 2  8-0.00000000E+00-0.00000000E+00-0.00000000E+00-0.00000000E+00-0.00000000E+00
 2  9-0.00000000E+00-0.00000000E+00-0.00000000E+00-0.00000000E+00-0.00000000E+00
 2 10-0.00000000E+00-0.00000000E+00-0.00000000E+00-0.00000000E+00-0.00000000E+00
 2 11-0.00000000E+00-0.00000000E+00-0.00000000E+00-0.00000000E+00-0.00000000E+00
 2 12-0.00000000E+00-0.00000000E+00-0.00000000E+00-0.00000000E+00-0.00000000E+00
 2 13-0.00000000E+00-0.00000000E+00-0.00000000E+00-0.00000000E+00-0.00000000E+00
 2 14-0.00000000E+00-0.00000000E+00-0.00000000E+00-0.00000000E+00-0.00000000E+00
 2 15-0.00000000E+00-0.00000000E+00-0.00000000E+00-0.00000000E+00-2.85385187E-05
 2 16-0.00000000E+00-8.15192416E-06-0.00000000E+00-0.00000000E+00-0.00000000E+00
 2 17-0.00000000E+00 4.64403648E-05-0.00000000E+00-0.00000000E+00 1.07835459E-03
 2 18-0.00000000E+00-1.09239000E-03-0.00000000E+00-0.00000000E+00-0.00000000E+00
 2 19-0.00000000E+00-3.54374492E-04-0.00000000E+00-0.00000000E+00 2.34571136E-03
 2 20-0.00000000E+00-3.90915240E-03-0.00000000E+00-0.00000000E+00-0.00000000E+00
 2 21-0.00000000E+00 7.62050372E-04-0.00000000E+00-0.00000000E+00 1.16918120E-03
 2 22-0.00000000E+00-3.14445259E-03-0.00000000E+00-0.00000000E+00-0.00000000E+00
 2 23-0.00000000E+00 1.57583141E-03-0.00000000E+00-0.00000000E+00 5.73055987E-04
 2 24-0.00000000E+00-9.61395181E-04-0.00000000E+00-0.00000000E+00-0.00000000E+00
 2 25-0.00000000E+00 1.92559896E-04-0.00000000E+00-0.00000000E+00-0.00000000E+00
 2 26-0.00000000E+00-0.00000000E+00-0.00000000E+00-0.00000000E+00-0.00000000E+00
 2 27-0.00000000E+00-0.00000000E+00-0.00000000E+00-0.00000000E+00-0.00000000E+00
 2 28-0.00000000E+00-0.00000000E+00-0.00000000E+00-0.00000000E+00-0.00000000E+00
 2 29-0.00000000E+00-0.00000000E+00-0.00000000E+00-0.00000000E+00-0.00000000E+00
 2 30-0.00000000E+00-0.00000000E+00-0.00000000E+00-0.00000000E+00-0.00000000E+00
 2 31-0.00000000E+00-0.00000000E+00-0.00000000E+00-0.00000000E+00-0.00000000E+00
 2 32-0.00000000E+00-0.00000000E+00-0.00000000E+00-0.00000000E+00-0.00000000E+00
 2 33-0.00000000E+00-0.00000000E+00-0.00000000E+00-0.00000000E+00-0.00000000E+00
 2 34-0.00000000E+00-0.00000000E+00-0.00000000E+00-0.00000000E+00-0.00000000E+00
 2 35-0.00000000E+00-0.00000000E+00-0.00000000E+00-0.00000000E+00-0.00000000E+00
 2 36-0.00000000E+00-0.00000000E+00-0.00000000E+00-0.00000000E+00-0.00000000E+00
 2 37-0.00000000E+00-0.00000000E+00-0.00000000E+00
 3  1-0.00000000E+00-0.00000000E+00-0.00000000E+00-0.00000000E+00-0.00000000E+00
 3  2-0.00000000E+00-0.00000000E+00 1.00040339E+00-0.00000000E+00-0.00000000E+00
 3  3 1.44605414E-02-0.00000000E+00-0.00000000E+00 1.41110216E-02-0.00000000E+00
 3  4-0.00000000E+00 1.08972355E-03-0.00000000E+00-0.00000000E+00-1.13510557E-03
 3  5-0.00000000E+00-0.00000000E+00 1.06759778E-04-0.00000000E+00-0.00000000E+00
 3  6-4.11229471E-03-0.00000000E+00-0.00000000E+00 7.30291584E-05-0.00000000E+00
 3  7-0.00000000E+00-0.00000000E+00-0.00000000E+00-0.00000000E+00-0.00000000E+00
 3  8-0.00000000E+00-0.00000000E+00-0.00000000E+00-0.00000000E+00-0.00000000E+00
 3  9-0.00000000E+00-0.00000000E+00-0.00000000E+00-0.00000000E+00-0.00000000E+00
 3 10-0.00000000E+00-0.00000000E+00-0.00000000E+00-0.00000000E+00-0.00000000E+00
 3 11-0.00000000E+00-0.00000000E+00-0.00000000E+00-0.00000000E+00-0.00000000E+00
 3 12-0.00000000E+00-0.00000000E+00-0.00000000E+00-0.00000000E+00-0.00000000E+00
 3 13-0.00000000E+00-0.00000000E+00-0.00000000E+00-0.00000000E+00-0.00000000E+00
 3 14-0.00000000E+00-0.00000000E+00-0.00000000E+00-0.00000000E+00-0.00000000E+00
 3 15-0.00000000E+00-0.00000000E+00-0.00000000E+00-2.85385187E-05-0.00000000E+00
 3 16-0.00000000E+00-0.00000000E+00-0.00000000E+00-8.15192416E-06-0.00000000E+00
 3 17 4.64403648E-05-0.00000000E+00-0.00000000E+00 1.07835459E-03-0.00000000E+00
 3 18-0.00000000E+00-0.00000000E+00-0.00000000E+00-1.09239000E-03-0.00000000E+00
 3 19-3.54374492E-04-0.00000000E+00-0.00000000E+00 2.34571136E-03-0.00000000E+00
 3 20-0.00000000E+00-0.00000000E+00-0.00000000E+00-3.90915240E-03-0.00000000E+00
 3 21 7.62050372E-04-0.00000000E+00-0.00000000E+00 1.16918120E-03-0.00000000E+00
 3 22-0.00000000E+00-0.00000000E+00-0.00000000E+00-3.14445259E-03-0.00000000E+00
 3 23 1.57583141E-03-0.00000000E+00-0.00000000E+00 5.73055987E-04-0.00000000E+00
 3 24-0.00000000E+00-0.00000000E+00-0.00000000E+00-9.61395181E-04-0.00000000E+00
 3 25 1.92559896E-04-0.00000000E+00-0.00000000E+00-0.00000000E+00-0.00000000E+00
 3 26-0.00000000E+00-0.00000000E+00-0.00000000E+00-0.00000000E+00-0.00000000E+00
 3 27-0.00000000E+00-0.00000000E+00-0.00000000E+00-0.00000000E+00-0.00000000E+00
 3 28-0.00000000E+00-0.00000000E+00-0.00000000E+00-0.00000000E+00-0.00000000E+00
 3 29-0.00000000E+00-0.00000000E+00-0.00000000E+00-0.00000000E+00-0.00000000E+00
 3 30-0.00000000E+00-0.00000000E+00-0.00000000E+00-0.00000000E+00-0.00000000E+00
 3 31-0.00000000E+00-0.00000000E+00-0.00000000E+00-0.00000000E+00-0.00000000E+00
 3 32-0.00000000E+00-0.00000000E+00-0.00000000E+00-0.00000000E+00-0.00000000E+00
 3 33-0.00000000E+00-0.00000000E+00-0.00000000E+00-0.00000000E+00-0.00000000E+00
 3 34-0.00000000E+00-0.00000000E+00-0.00000000E+00-0.00000000E+00-0.00000000E+00
 3 35-0.00000000E+00-0.00000000E+00-0.00000000E+00-0.00000000E+00-0.00000000E+00
 3 36-0.00000000E+00-0.00000000E+00-0.00000000E+00-0.00000000E+00-0.00000000E+00
 3 37-0.00000000E+00-0.00000000E+00-0.00000000E+00
 4  1 0.00000000E+00 0.00000000E+00 0.00000000E+00 0.00000000E+00 0.00000000E+00
 4  2 0.00000000E+00 0.00000000E+00 0.00000000E+00 0.00000000E+00 1.00039210E+00
 4  3 0.00000000E+00 0.00000000E+00 1.17125049E-02 0.00000000E+00 0.00000000E+00
 4  4 1.21882573E-02 0.00000000E+00 0.00000000E+00 1.66298033E-03 0.00000000E+00
 4  5 0.00000000E+00-7.91668673E-04 0.00000000E+00 0.00000000E+00-9.74804105E-05
 4  6 0.00000000E+00 0.00000000E+00-3.74788425E-03 0.00000000E+00 0.00000000E+00
 4  7 1.42178864E-04 0.00000000E+00 0.00000000E+00 0.00000000E+00 0.00000000E+00
 4  8 0.00000000E+00 0.00000000E+00 0.00000000E+00 0.00000000E+00 0.00000000E+00
 4  9 0.00000000E+00 0.00000000E+00 0.00000000E+00 0.00000000E+00 0.00000000E+00
 4 10 0.00000000E+00 0.00000000E+00 0.00000000E+00 0.00000000E+00 0.00000000E+00
 4 11 0.00000000E+00 0.00000000E+00 0.00000000E+00 0.00000000E+00 0.00000000E+00
 4 12 0.00000000E+00 0.00000000E+00 0.00000000E+00 0.00000000E+00 0.00000000E+00
 4 13 0.00000000E+00 0.00000000E+00 0.00000000E+00 0.00000000E+00 0.00000000E+00
 4 14 0.00000000E+00 0.00000000E+00 0.00000000E+00 0.00000000E+00 0.00000000E+00
 4 15 0.00000000E+00 0.00000000E+00 0.00000000E+00 0.00000000E+00 0.00000000E+00
 4 16 5.17164339E-05 0.00000000E+00-3.46924385E-05 0.00000000E+00-3.46924385E-05
 4 17 0.00000000E+00 0.00000000E+00 0.00000000E+00 0.00000000E+00 0.00000000E+00
 4 18-4.81567489E-05 0.00000000E+00 3.23045293E-05 0.00000000E+00 3.23045293E-05
 4 19 0.00000000E+00 0.00000000E+00 0.00000000E+00 0.00000000E+00 0.00000000E+00
 4 20 1.96024802E-03 0.00000000E+00-1.31497435E-03 0.00000000E+00-1.31497435E-03
 4 21 0.00000000E+00 0.00000000E+00 0.00000000E+00 0.00000000E+00 0.00000000E+00
 4 22 2.59162511E-03 0.00000000E+00-1.73851498E-03 0.00000000E+00-1.73851498E-03
 4 23 0.00000000E+00 0.00000000E+00 0.00000000E+00 0.00000000E+00 0.00000000E+00
 4 24 4.88720800E-04 0.00000000E+00-3.27843879E-04 0.00000000E+00-3.27843879E-04
 4 25 0.00000000E+00 0.00000000E+00 0.00000000E+00 0.00000000E+00 0.00000000E+00
 4 26 0.00000000E+00 0.00000000E+00 0.00000000E+00 0.00000000E+00 0.00000000E+00
 4 27 0.00000000E+00 0.00000000E+00 0.00000000E+00 0.00000000E+00 0.00000000E+00
 4 28 0.00000000E+00 0.00000000E+00 0.00000000E+00 0.00000000E+00 0.00000000E+00
 4 29 0.00000000E+00 0.00000000E+00 0.00000000E+00 0.00000000E+00 0.00000000E+00
 4 30 0.00000000E+00 0.00000000E+00 0.00000000E+00 0.00000000E+00 0.00000000E+00
 4 31 0.00000000E+00 0.00000000E+00 0.00000000E+00 0.00000000E+00 0.00000000E+00
 4 32 0.00000000E+00 0.00000000E+00 0.00000000E+00 0.00000000E+00 0.00000000E+00
 4 33 0.00000000E+00 0.00000000E+00 0.00000000E+00 0.00000000E+00 0.00000000E+00
 4 34 0.00000000E+00 0.00000000E+00 0.00000000E+00 0.00000000E+00 0.00000000E+00
 4 35 0.00000000E+00 0.00000000E+00 0.00000000E+00 0.00000000E+00 0.00000000E+00
 4 36 0.00000000E+00 0.00000000E+00 0.00000000E+00 0.00000000E+00 0.00000000E+00
 4 37 0.00000000E+00 0.00000000E+00 0.00000000E+00
 5  1 0.00000000E+00 0.00000000E+00 0.00000000E+00 0.00000000E+00 0.00000000E+00
 5  2 0.00000000E+00 0.00000000E+00 0.00000000E+00 0.00000000E+00 0.00000000E+00
 5  3 0.00000000E+00 0.00000000E+00 0.00000000E+00 0.00000000E+00 0.00000000E+00
 5  4 0.00000000E+00 0.00000000E+00 0.00000000E+00 0.00000000E+00 0.00000000E+00
 5  5 0.00000000E+00 0.00000000E+00 0.00000000E+00 0.00000000E+00 0.00000000E+00
 5  6 0.00000000E+00 0.00000000E+00 0.00000000E+00 0.00000000E+00 0.00000000E+00
 5  7 0.00000000E+00 8.69401740E-01-8.69401740E-01 0.00000000E+00 0.00000000E+00
 5  8 0.00000000E+00 0.00000000E+00-7.62785712E-02 7.62785712E-02 0.00000000E+00
 5  9 0.00000000E+00 0.00000000E+00 0.00000000E+00-2.76223548E-02 2.76223548E-02
 5 10 0.00000000E+00 0.00000000E+00 0.00000000E+00 0.00000000E+00-4.76547081E-03
 5 11 4.76547081E-03 0.00000000E+00 0.00000000E+00 0.00000000E+00 0.00000000E+00
 5 12-3.69586719E-04 3.69586719E-04 0.00000000E+00 0.00000000E+00 0.00000000E+00
 5 13 0.00000000E+00-1.75834751E-02 1.75834751E-02 0.00000000E+00 0.00000000E+00
 5 14 0.00000000E+00 0.00000000E+00-6.85163437E-05 6.85163437E-05 0.00000000E+00
 5 15 0.00000000E+00 0.00000000E+00 0.00000000E+00 0.00000000E+00 0.00000000E+00
 5 16 0.00000000E+00 0.00000000E+00 0.00000000E+00 0.00000000E+00 0.00000000E+00
 5 17 0.00000000E+00 0.00000000E+00 0.00000000E+00 0.00000000E+00 0.00000000E+00
 5 18 0.00000000E+00 0.00000000E+00 0.00000000E+00 0.00000000E+00 0.00000000E+00
 5 19 0.00000000E+00 0.00000000E+00 0.00000000E+00 0.00000000E+00 0.00000000E+00
 5 20 0.00000000E+00 0.00000000E+00 0.00000000E+00 0.00000000E+00 0.00000000E+00
 5 21 0.00000000E+00 0.00000000E+00 0.00000000E+00 0.00000000E+00 0.00000000E+00
 5 22 0.00000000E+00 0.00000000E+00 0.00000000E+00 0.00000000E+00 0.00000000E+00
 5 23 0.00000000E+00 0.00000000E+00 0.00000000E+00 0.00000000E+00 0.00000000E+00
 5 24 0.00000000E+00 0.00000000E+00 0.00000000E+00 0.00000000E+00 0.00000000E+00
 5 25 0.00000000E+00 0.00000000E+00 0.00000000E+00-9.59242812E-05 9.59242812E-05
 5 26 0.00000000E+00 0.00000000E+00 0.00000000E+00 0.00000000E+00 0.00000000E+00
 5 27 0.00000000E+00 0.00000000E+00 0.00000000E+00 1.68502523E-04-1.68502523E-04
 5 28 0.00000000E+00 0.00000000E+00 0.00000000E+00-5.62367621E-04 5.62367621E-04
 5 29 0.00000000E+00 0.00000000E+00 0.00000000E+00 0.00000000E+00 0.00000000E+00
 5 30 0.00000000E+00 0.00000000E+00 0.00000000E+00 9.87866285E-04-9.87866285E-04
 5 31 0.00000000E+00 0.00000000E+00 0.00000000E+00-6.39025903E-04 6.39025903E-04
 5 32 0.00000000E+00 0.00000000E+00 0.00000000E+00 0.00000000E+00 0.00000000E+00
 5 33 0.00000000E+00 0.00000000E+00 0.00000000E+00 1.12252577E-03-1.12252577E-03
 5 34 0.00000000E+00 0.00000000E+00 0.00000000E+00-2.12136495E-04 2.12136495E-04
 5 35 0.00000000E+00 0.00000000E+00 0.00000000E+00 0.00000000E+00 0.00000000E+00
 5 36 0.00000000E+00 0.00000000E+00 0.00000000E+00 3.72643237E-04-3.72643237E-04
 5 37 0.00000000E+00 0.00000000E+00 0.00000000E+00
 6  1 1.46028021E-03 1.55666368E-02 2.63338598E-03-1.33420581E-03-8.23363932E-05
 6  2 5.27631271E-04-3.08740105E-05-0.00000000E+00-0.00000000E+00-0.00000000E+00
 6  3-0.00000000E+00-0.00000000E+00-0.00000000E+00-0.00000000E+00-0.00000000E+00
 6  4-0.00000000E+00-0.00000000E+00-0.00000000E+00-0.00000000E+00-0.00000000E+00
 6  5-0.00000000E+00-0.00000000E+00-0.00000000E+00-0.00000000E+00-0.00000000E+00
 6  6-0.00000000E+00-0.00000000E+00-0.00000000E+00-0.00000000E+00-0.00000000E+00
 6  7-0.00000000E+00-4.97478574E-01-4.97478574E-01 9.94957148E-01-0.00000000E+00
 6  8-0.00000000E+00-0.00000000E+00 7.03412094E-02 7.03412094E-02-1.40682419E-01
 6  9-0.00000000E+00-0.00000000E+00-0.00000000E+00 2.24946934E-02 2.24946934E-02
 6 10-4.49893869E-02-0.00000000E+00-0.00000000E+00-0.00000000E+00 2.83710808E-03
 6 11 2.83710808E-03-5.67421616E-03-0.00000000E+00-0.00000000E+00-0.00000000E+00
 6 12-4.66205049E-04-4.66205049E-04 9.32410098E-04-0.00000000E+00-0.00000000E+00
 6 13-0.00000000E+00 1.04605683E-03 1.04605683E-03-2.09211366E-03-0.00000000E+00
 6 14-0.00000000E+00-0.00000000E+00 5.09956749E-05 5.09956749E-05-1.01991350E-04
 6 15-0.00000000E+00-0.00000000E+00-0.00000000E+00-0.00000000E+00-0.00000000E+00
 6 16-0.00000000E+00-0.00000000E+00-0.00000000E+00-0.00000000E+00-0.00000000E+00
 6 17-0.00000000E+00-0.00000000E+00-0.00000000E+00-0.00000000E+00-0.00000000E+00
 6 18-0.00000000E+00-0.00000000E+00-0.00000000E+00-0.00000000E+00-0.00000000E+00
 6 19-0.00000000E+00-0.00000000E+00-0.00000000E+00-0.00000000E+00-0.00000000E+00
 6 20-0.00000000E+00-0.00000000E+00-0.00000000E+00-0.00000000E+00-0.00000000E+00
 6 21-0.00000000E+00-0.00000000E+00-0.00000000E+00-0.00000000E+00-0.00000000E+00
 6 22-0.00000000E+00-0.00000000E+00-0.00000000E+00-0.00000000E+00-0.00000000E+00
 6 23-0.00000000E+00-0.00000000E+00-0.00000000E+00-0.00000000E+00-0.00000000E+00
 6 24-0.00000000E+00-0.00000000E+00-0.00000000E+00-0.00000000E+00-0.00000000E+00
 6 25-0.00000000E+00-0.00000000E+00-0.00000000E+00 1.56336392E-04 1.56336392E-04
 6 26 3.98036386E-04-0.00000000E+00-0.00000000E+00-0.00000000E+00-0.00000000E+00
 6 27-0.00000000E+00-0.00000000E+00 7.49757114E-05-3.49599364E-04-3.49599364E-04
 6 28-0.00000000E+00-0.00000000E+00-0.00000000E+00 1.51506821E-03 1.51506821E-03
 6 29 2.35323737E-03-0.00000000E+00-0.00000000E+00-0.00000000E+00-0.00000000E+00
 6 30-0.00000000E+00-0.00000000E+00-5.94527258E-04-2.06687206E-03-2.06687206E-03
 6 31-0.00000000E+00-0.00000000E+00-0.00000000E+00 2.07778619E-03 2.07778619E-03
 6 32 2.75036519E-03-0.00000000E+00-0.00000000E+00-0.00000000E+00-0.00000000E+00
 6 33-0.00000000E+00-0.00000000E+00-1.23420762E-03-2.41567343E-03-2.41567343E-03
 6 34-0.00000000E+00-0.00000000E+00-0.00000000E+00 7.30362674E-04 7.30362674E-04
 6 35 9.61632173E-04-0.00000000E+00-0.00000000E+00-0.00000000E+00-0.00000000E+00
 6 36-0.00000000E+00-0.00000000E+00-4.38358560E-04-8.44611217E-04-8.44611217E-04
 6 37-0.00000000E+00-0.00000000E+00-0.00000000E+00
 7  1-0.00000000E+00-0.00000000E+00-0.00000000E+00-0.00000000E+00-0.00000000E+00
 7  2-0.00000000E+00-0.00000000E+00-0.00000000E+00-0.00000000E+00-0.00000000E+00
 7  3-0.00000000E+00-0.00000000E+00-0.00000000E+00-0.00000000E+00-0.00000000E+00
 7  4-0.00000000E+00-0.00000000E+00-0.00000000E+00-0.00000000E+00-0.00000000E+00
 7  5-0.00000000E+00-0.00000000E+00-0.00000000E+00-0.00000000E+00-0.00000000E+00
 7  6-0.00000000E+00-0.00000000E+00-0.00000000E+00-0.00000000E+00-0.00000000E+00
 7  7-0.00000000E+00-0.00000000E+00-0.00000000E+00-0.00000000E+00-0.00000000E+00
 7  8-0.00000000E+00 9.95628940E-01-0.00000000E+00-0.00000000E+00-0.00000000E+00
 7  9-0.00000000E+00-0.00000000E+00-1.37801895E-01-0.00000000E+00-0.00000000E+00
 7 10-0.00000000E+00-0.00000000E+00-0.00000000E+00-4.43236856E-02-0.00000000E+00
 7 11-0.00000000E+00-0.00000000E+00-0.00000000E+00-0.00000000E+00-5.70443209E-03
 7 12-0.00000000E+00-0.00000000E+00-0.00000000E+00-0.00000000E+00-0.00000000E+00
 7 13 8.80517014E-04-0.00000000E+00-0.00000000E+00-0.00000000E+00-0.00000000E+00
 7 14-0.00000000E+00-3.13795131E-03-0.00000000E+00-0.00000000E+00-0.00000000E+00
 7 15-0.00000000E+00-0.00000000E+00-9.64511945E-05-0.00000000E+00-0.00000000E+00
 7 16-0.00000000E+00-0.00000000E+00-0.00000000E+00-0.00000000E+00-0.00000000E+00
 7 17-0.00000000E+00-0.00000000E+00-0.00000000E+00-0.00000000E+00-0.00000000E+00
 7 18-0.00000000E+00-0.00000000E+00-0.00000000E+00-0.00000000E+00-0.00000000E+00
 7 19-0.00000000E+00-0.00000000E+00-0.00000000E+00-0.00000000E+00-0.00000000E+00
 7 20-0.00000000E+00-0.00000000E+00-0.00000000E+00-0.00000000E+00-0.00000000E+00
 7 21-0.00000000E+00-0.00000000E+00-0.00000000E+00-0.00000000E+00-0.00000000E+00
 7 22-0.00000000E+00-0.00000000E+00-0.00000000E+00-0.00000000E+00-0.00000000E+00
 7 23-0.00000000E+00-0.00000000E+00-0.00000000E+00-0.00000000E+00-0.00000000E+00
 7 24-0.00000000E+00-0.00000000E+00-0.00000000E+00-0.00000000E+00-0.00000000E+00
 7 25-0.00000000E+00-0.00000000E+00-0.00000000E+00-0.00000000E+00-0.00000000E+00
 7 26-0.00000000E+00-0.00000000E+00-0.00000000E+00-0.00000000E+00-3.54974091E-04
 7 27-0.00000000E+00 4.51887712E-04-0.00000000E+00-0.00000000E+00-0.00000000E+00
 7 28-1.30023266E-04-0.00000000E+00-0.00000000E+00-0.00000000E+00-0.00000000E+00
 7 29-0.00000000E+00-0.00000000E+00-0.00000000E+00-0.00000000E+00-2.45546086E-03
 7 30-0.00000000E+00 2.67934170E-03-0.00000000E+00-0.00000000E+00-0.00000000E+00
 7 31-3.00367662E-04-0.00000000E+00-0.00000000E+00-0.00000000E+00-0.00000000E+00
 7 32-0.00000000E+00-0.00000000E+00-0.00000000E+00-0.00000000E+00-3.05612669E-03
 7 33-0.00000000E+00 3.14124991E-03-0.00000000E+00-0.00000000E+00-0.00000000E+00
 7 34-1.14204781E-04-0.00000000E+00-0.00000000E+00-0.00000000E+00-0.00000000E+00
 7 35-0.00000000E+00-0.00000000E+00-0.00000000E+00-0.00000000E+00-1.06510182E-03
 7 36-0.00000000E+00 1.09526499E-03-0.00000000E+00-0.00000000E+00-0.00000000E+00
 7 37-4.04681360E-05-0.00000000E+00-0.00000000E+00
 8  1-0.00000000E+00-0.00000000E+00-0.00000000E+00-0.00000000E+00-0.00000000E+00
 8  2-0.00000000E+00-0.00000000E+00-0.00000000E+00-0.00000000E+00-0.00000000E+00
 8  3-0.00000000E+00-0.00000000E+00-0.00000000E+00-0.00000000E+00-0.00000000E+00
 8  4-0.00000000E+00-0.00000000E+00-0.00000000E+00-0.00000000E+00-0.00000000E+00
 8  5-0.00000000E+00-0.00000000E+00-0.00000000E+00-0.00000000E+00-0.00000000E+00
 8  6-0.00000000E+00-0.00000000E+00-0.00000000E+00-0.00000000E+00-0.00000000E+00
 8  7-0.00000000E+00-0.00000000E+00-0.00000000E+00-0.00000000E+00-0.00000000E+00
 8  8 9.95628940E-01-0.00000000E+00-0.00000000E+00-0.00000000E+00-0.00000000E+00
 8  9-0.00000000E+00-1.37801895E-01-0.00000000E+00-0.00000000E+00-0.00000000E+00
 8 10-0.00000000E+00-0.00000000E+00-4.43236856E-02-0.00000000E+00-0.00000000E+00
 8 11-0.00000000E+00-0.00000000E+00-0.00000000E+00-5.70443209E-03-0.00000000E+00
 8 12-0.00000000E+00-0.00000000E+00-0.00000000E+00-0.00000000E+00 8.80517014E-04
 8 13-0.00000000E+00-0.00000000E+00-0.00000000E+00-0.00000000E+00-0.00000000E+00
 8 14-3.13795131E-03-0.00000000E+00-0.00000000E+00-0.00000000E+00-0.00000000E+00
 8 15-0.00000000E+00-9.64511945E-05-0.00000000E+00-0.00000000E+00-0.00000000E+00
 8 16-0.00000000E+00-0.00000000E+00-0.00000000E+00-0.00000000E+00-0.00000000E+00
 8 17-0.00000000E+00-0.00000000E+00-0.00000000E+00-0.00000000E+00-0.00000000E+00