 $CONTRL 
     SCFTYP=ROHF 
     MULT=4
     ICHARG=0 
     RUNTYP=ENERGY
     MAXIT=150
     ECP=READ
     ISPHER=1
 $END

 $SYSTEM 
     KDIAG=3
     MWORDS=100
 $END

$SCF
!    DIRSCF=.t.
!    DIIS=.t.
!    DAMP=.t.
!    SHIFT=.t.
    RSTRCT=.t.
$END

 $GUESS
!    GUESS=HUCKEL
    GUESS=MOREAD
    NORB=22
    NORDER=1
    IORDER(5)=5,13,8,7,6,9,10,11,12
 $END


 $DATA  

C1
V 23 0.0 0.0 0.0
S  13
  1      68.577621  0.00080400
  2      34.937147  -0.01159400
  3      17.939491  0.09220900
  4      11.262123  -0.04547700
  5       6.776264  -0.28798300
  6       3.524091  -0.21764800
  7       1.938421  0.40750900
  8       0.927153  0.65819300
  9       0.448420  0.25523400
 10       0.209668  0.00862000
 11       0.103660  0.00273400
 12       0.050630  -0.00116100
 13       0.024201  0.00029400
S  13
  1      68.577621  -0.00017700
  2      34.937147  0.00279100
  3      17.939491  -0.02365000
  4      11.262123  0.01250400
  5       6.776264  0.07876100
  6       3.524091  0.05497400
  7       1.938421  -0.11895500
  8       0.927153  -0.24534100
  9       0.448420  -0.22295900
 10       0.209668  0.04780900
 11       0.103660  0.41537400
 12       0.050630  0.54088000
 13       0.024201  0.18342100
S  13
  1      68.577621  -0.00058300
  2      34.937147  0.00957000
  3      17.939491  -0.08560600
  4      11.262123  0.04842600
  5       6.776264  0.33123900
  6       3.524091  0.14035200
  7       1.938421  -0.90796200
  8       0.927153  -0.50387800
  9       0.448420  0.39893800
 10       0.209668  0.97113100
 11       0.103660  0.42399900
 12       0.050630  -0.62864600
 13       0.024201  -0.46749500
S  13
  1      68.577621  -0.00076500
  2      34.937147  0.01452900
  3      17.939491  -0.13961800
  4      11.262123  0.06307300
  5       6.776264  0.70419300
  6       3.524091  -0.01160200
  7       1.938421  -2.31160400
  8       0.927153  0.76826900
  9       0.448420  2.16892000
 10       0.209668  -1.06267100
 11       0.103660  -1.21815100
 12       0.050630  0.34080900
 13       0.024201  0.71332200
S  13
  1      68.577621  -0.00356700
  2      34.937147  0.01000700
  3      17.939491  0.04020200
  4      11.262123  0.34329500
  5       6.776264  -2.09702200
  6       3.524091  2.80403900
  7       1.938421  1.20663800
  8       0.927153  -4.50572400
  9       0.448420  2.15832500
 10       0.209668  2.12989200
 11       0.103660  -2.26503700
 12       0.050630  -0.68105100
 13       0.024201  1.25786200
S  1
  1       0.024201  1.00000000
P  13
  1      96.215967  0.00006900
  2      49.579340  -0.00067200
  3      25.638009  0.00819900
  4      14.025942  -0.02710800
  5       8.740334  -0.05302100
  6       4.634840  0.00500200
  7       2.553374  0.26198600
  8       1.321166  0.43354400
  9       0.681285  0.32494700
 10       0.349458  0.09234200
 11       0.172773  0.00896400
 12       0.063300  0.00118500
 13       0.033969  0.00010400
P  13
  1      96.215967  0.00004000
  2      49.579340  -0.00013300
  3      25.638009  -0.00095500
  4      14.025942  0.00371900
  5       8.740334  0.01886600
  6       4.634840  -0.01207400
  7       2.553374  -0.05710700
  8       1.321166  -0.14643300
  9       0.681285  -0.06736500
 10       0.349458  -0.06825400
 11       0.172773  0.40310300
 12       0.063300  0.50266800
 13       0.033969  0.26129100
P  13
  1      96.215967  -0.00005300
  2      49.579340  0.00002300
  3      25.638009  0.00462900
  4      14.025942  -0.00775500
  5       8.740334  -0.10413300
  6       4.634840  -0.01776200
  7       2.553374  0.72821200
  8       1.321166  0.21882600
  9       0.681285  -0.49322300
 10       0.349458  -0.83819200
 11       0.172773  0.39840100
 12       0.063300  0.66458900
 13       0.033969  0.03301100
P  13
  1      96.215967  -0.00126200
  2      49.579340  0.00641900
  3      25.638009  -0.02122900
  4      14.025942  0.11577700
  5       8.740334  -0.42074000
  6       4.634840  0.19774200
  7       2.553374  1.57560000
  8       1.321166  -1.06791300
  9       0.681285  -1.31008300
 10       0.349458  1.19114700
 11       0.172773  0.55051600
 12       0.063300  -0.71878800
 13       0.033969  -0.15744100
P  13
  1      96.215967  -0.00478000
  2      49.579340  0.02531200
  3      25.638009  -0.09426700
  4      14.025942  0.43789600
  5       8.740334  -1.44316600
  6       4.634840  2.63678000
  7       2.553374  -0.38243600
  8       1.321166  -2.76188100
  9       0.681285  2.15975600
 10       0.349458  0.67615100
 11       0.172773  -1.62151700
 12       0.063300  0.42916400
 13       0.033969  0.40017800
P  1
  1       0.033969  1.00000000
D  11
  1      89.989649  0.00005100
  2      33.132961  0.00480400
  3      15.879656  0.02948500
  4       7.465803  0.08624900
  5       3.551993  0.17972800
  6       1.728185  0.26185000
  7       0.850498  0.29179400
  8       0.417673  0.25935600
  9       0.201523  0.17494400
 10       0.100711  0.06227800
 11       0.058959  0.02765300
D  11
  1      89.989649  -0.00003800
  2      33.132961  -0.00459000
  3      15.879656  -0.02756300
  4       7.465803  -0.08277500
  5       3.551993  -0.17349400
  6       1.728185  -0.23618800
  7       0.850498  -0.14922600
  8       0.417673  0.04414500
  9       0.201523  0.39050000
 10       0.100711  0.20306400
 11       0.058959  0.39800200
D  11
  1      89.989649  0.00012800
  2      33.132961  0.00665200
  3      15.879656  0.04463500
  4       7.465803  0.12255900
  5       3.551993  0.31114700
  6       1.728185  0.28881300
  7       0.850498  -0.14224600
  8       0.417673  -0.61373700
  9       0.201523  -0.12391600
 10       0.100711  -0.02023500
 11       0.058959  0.73325900
D  11
  1      89.989649  0.00004500
  2      33.132961  -0.01039400
  3      15.879656  -0.05505100
  4       7.465803  -0.17145700
  5       3.551993  -0.51992200
  6       1.728185  0.09902600
  7       0.850498  0.82933200
  8       0.417673  -0.07090800
  9       0.201523  -0.47117100
 10       0.100711  -0.87878900
 11       0.058959  1.21174700
D  1
  1       0.058959  1.00000000
F  1
  1       0.309164  1.00000000
F  1
  1       1.028253  1.00000000
F  1
  1       3.419885  1.00000000
G  1
  1       0.946128  1.00000000
G  1
  1       3.081804  1.00000000
S  1
  1       0.820525  1.00000000
S  1
  1       1.521457  1.00000000
P  1
  1       2.371806  1.00000000
P  1
  1       5.892088  1.00000000
D  1
  1       3.248775  1.00000000
D  1
  1       2.679882  1.00000000
F  1
  1       2.371670  1.00000000
G  1
  1       3.899112  1.00000000

 $END

 $ECP
V-ccECP GEN 10 2
4
   13.00000000 1 20.32168914
  264.18195885 3 19.59698040
 -115.29293208 2 17.33147348
   -0.66288726 2  5.12320657
2
  195.56713891 2 15.12502150
   22.88642834 2  6.29898914
2
  126.42119500 2 15.93855113
   16.03597127 2  5.74006266
 $END

 $VEC   
 1  1 1.00004598E+00 9.56619189E-04 2.23837465E-04 1.80830980E-04 4.83275704E-05
 1  2-1.63761022E-04 0.00000000E+00 0.00000000E+00 0.00000000E+00 0.00000000E+00
 1  3 0.00000000E+00 0.00000000E+00 0.00000000E+00 0.00000000E+00 0.00000000E+00
 1  4 0.00000000E+00 0.00000000E+00 0.00000000E+00 0.00000000E+00 0.00000000E+00
 1  5 0.00000000E+00 0.00000000E+00 0.00000000E+00 0.00000000E+00 9.35813320E-10
 1  6 7.56353697E-09-8.49935029E-09 0.00000000E+00 0.00000000E+00 0.00000000E+00
 1  7 3.18240172E-09-2.30102421E-09-8.81377514E-10 0.00000000E+00 0.00000000E+00
 1  8 0.00000000E+00 2.01190073E-09-3.82687738E-10-1.62921299E-09 0.00000000E+00
 1  9 0.00000000E+00 0.00000000E+00 5.47371198E-10 3.60951316E-10-9.08322514E-10
 1 10 0.00000000E+00 0.00000000E+00 0.00000000E+00-3.61612170E-09 7.20854761E-10
 1 11 2.89526694E-09 0.00000000E+00 0.00000000E+00 0.00000000E+00 0.00000000E+00
 1 12 0.00000000E+00 0.00000000E+00 0.00000000E+00 0.00000000E+00 0.00000000E+00
 1 13 0.00000000E+00 0.00000000E+00 0.00000000E+00 0.00000000E+00 0.00000000E+00
 1 14 0.00000000E+00 0.00000000E+00 0.00000000E+00 0.00000000E+00 0.00000000E+00
 1 15 0.00000000E+00 0.00000000E+00 0.00000000E+00 0.00000000E+00 0.00000000E+00
 1 16 0.00000000E+00 0.00000000E+00 0.00000000E+00 0.00000000E+00 0.00000000E+00
 1 17 0.00000000E+00 0.00000000E+00 0.00000000E+00 0.00000000E+00-1.21229433E-03
 1 18 3.03073589E-04 3.03073830E-04 0.00000000E+00 0.00000000E+00 0.00000000E+00
 1 19 0.00000000E+00 0.00000000E+00 0.00000000E+00 1.06477052E-03 1.06477010E-03
 1 20-1.59715569E-03 0.00000000E+00 0.00000000E+00 0.00000000E+00 1.86695496E-05
 1 21-4.66738521E-06-4.66740497E-06 0.00000000E+00 0.00000000E+00 0.00000000E+00
 1 22 0.00000000E+00 0.00000000E+00 0.00000000E+00-1.63976707E-05-1.63976360E-05
 1 23 2.45964935E-05 0.00000000E+00 0.00000000E+00 0.00000000E+00-4.19135076E-05
 1 24 3.34860816E-05 0.00000000E+00 0.00000000E+00 0.00000000E+00 0.00000000E+00
 1 25 0.00000000E+00 0.00000000E+00-2.10819397E-10 1.59597162E-10 5.12222353E-11
 1 26 0.00000000E+00 0.00000000E+00 0.00000000E+00 2.89065043E-10 7.00644044E-11
 1 27-3.59129448E-10 0.00000000E+00 0.00000000E+00 0.00000000E+00 0.00000000E+00
 1 28 0.00000000E+00 0.00000000E+00 0.00000000E+00 0.00000000E+00 0.00000000E+00
 1 29 0.00000000E+00 0.00000000E+00 0.00000000E+00 0.00000000E+00-3.85746781E-04
 1 30 9.64366509E-05 9.64367377E-05 0.00000000E+00 0.00000000E+00 0.00000000E+00
 1 31 0.00000000E+00 0.00000000E+00 0.00000000E+00 3.38805356E-04 3.38805204E-04
 1 32-5.08207919E-04 0.00000000E+00 0.00000000E+00 0.00000000E+00
 2  1 0.00000000E+00 0.00000000E+00 0.00000000E+00 0.00000000E+00 0.00000000E+00
 2  2 0.00000000E+00 0.00000000E+00 9.95331721E-01 0.00000000E+00 0.00000000E+00
 2  3 3.40842031E-02 0.00000000E+00 0.00000000E+00-2.36871766E-02 0.00000000E+00
 2  4 0.00000000E+00 2.69882190E-03 0.00000000E+00 0.00000000E+00 7.33688052E-04
 2  5 0.00000000E+00 0.00000000E+00-8.02987617E-03 0.00000000E+00 0.00000000E+00
 2  6 0.00000000E+00 0.00000000E+00 0.00000000E+00 0.00000000E+00 0.00000000E+00
 2  7 0.00000000E+00 0.00000000E+00 0.00000000E+00 0.00000000E+00 0.00000000E+00
 2  8 0.00000000E+00 0.00000000E+00 0.00000000E+00 0.00000000E+00 0.00000000E+00
 2  9 0.00000000E+00 0.00000000E+00 0.00000000E+00 0.00000000E+00 0.00000000E+00
 2 10 0.00000000E+00 0.00000000E+00 0.00000000E+00 0.00000000E+00 0.00000000E+00
 2 11 0.00000000E+00 0.00000000E+00 0.00000000E+00 0.00000000E+00 0.00000000E+00
 2 12 7.58966224E-04 0.00000000E+00 2.03652055E-03 0.00000000E+00 0.00000000E+00
 2 13 0.00000000E+00 0.00000000E+00-3.05478059E-03 0.00000000E+00 0.00000000E+00
 2 14 1.55221259E-03 0.00000000E+00 4.16501985E-03 0.00000000E+00 0.00000000E+00
 2 15 0.00000000E+00 0.00000000E+00-6.24753157E-03 0.00000000E+00 0.00000000E+00
 2 16 7.56971072E-04 0.00000000E+00 2.03116590E-03 0.00000000E+00 0.00000000E+00
 2 17 0.00000000E+00 0.00000000E+00-3.04674917E-03 0.00000000E+00 0.00000000E+00
 2 18 0.00000000E+00 0.00000000E+00 0.00000000E+00 0.00000000E+00 0.00000000E+00
 2 19 0.00000000E+00 0.00000000E+00 0.00000000E+00 0.00000000E+00 0.00000000E+00
 2 20 0.00000000E+00 0.00000000E+00 0.00000000E+00 0.00000000E+00 0.00000000E+00
 2 21 0.00000000E+00 0.00000000E+00 0.00000000E+00 0.00000000E+00 0.00000000E+00
 2 22 0.00000000E+00 0.00000000E+00 0.00000000E+00 0.00000000E+00 0.00000000E+00
 2 23 0.00000000E+00 0.00000000E+00 0.00000000E+00 0.00000000E+00 0.00000000E+00
 2 24 0.00000000E+00 0.00000000E+00 7.36765554E-03 0.00000000E+00 0.00000000E+00
 2 25-1.91577475E-03 0.00000000E+00 0.00000000E+00 0.00000000E+00 0.00000000E+00
 2 26 0.00000000E+00 0.00000000E+00 0.00000000E+00 0.00000000E+00 0.00000000E+00
 2 27 0.00000000E+00 0.00000000E+00 0.00000000E+00 0.00000000E+00 0.00000000E+00
 2 28-6.33547233E-05 0.00000000E+00-1.69997792E-04 0.00000000E+00 0.00000000E+00
 2 29 0.00000000E+00 0.00000000E+00 2.54997072E-04 0.00000000E+00 0.00000000E+00
 2 30 0.00000000E+00 0.00000000E+00 0.00000000E+00 0.00000000E+00 0.00000000E+00
 2 31 0.00000000E+00 0.00000000E+00 0.00000000E+00 0.00000000E+00 0.00000000E+00
 2 32 0.00000000E+00 0.00000000E+00 0.00000000E+00 0.00000000E+00
 3  1 0.00000000E+00 0.00000000E+00 0.00000000E+00 0.00000000E+00 0.00000000E+00
 3  2 0.00000000E+00 9.95331723E-01 0.00000000E+00 0.00000000E+00 3.40842007E-02
 3  3 0.00000000E+00 0.00000000E+00-2.36871732E-02 0.00000000E+00 0.00000000E+00
 3  4 2.69882163E-03 0.00000000E+00 0.00000000E+00 7.33687870E-04 0.00000000E+00
 3  5 0.00000000E+00-8.02987656E-03 0.00000000E+00 0.00000000E+00 0.00000000E+00
 3  6 0.00000000E+00 0.00000000E+00 0.00000000E+00 0.00000000E+00 0.00000000E+00
 3  7 0.00000000E+00 0.00000000E+00 0.00000000E+00 0.00000000E+00 0.00000000E+00
 3  8 0.00000000E+00 0.00000000E+00 0.00000000E+00 0.00000000E+00 0.00000000E+00
 3  9 0.00000000E+00 0.00000000E+00 0.00000000E+00 0.00000000E+00 0.00000000E+00
 3 10 0.00000000E+00 0.00000000E+00 0.00000000E+00 0.00000000E+00 0.00000000E+00
 3 11 0.00000000E+00 0.00000000E+00 0.00000000E+00 0.00000000E+00-3.03586425E-03
 3 12 0.00000000E+00 0.00000000E+00 0.00000000E+00 0.00000000E+00 2.03652049E-03
 3 13 0.00000000E+00 2.03651880E-03 0.00000000E+00 0.00000000E+00-6.20884494E-03
 3 14 0.00000000E+00 0.00000000E+00 0.00000000E+00 0.00000000E+00 4.16502188E-03
 3 15 0.00000000E+00 4.16501773E-03 0.00000000E+00 0.00000000E+00-3.02788328E-03
 3 16 0.00000000E+00 0.00000000E+00 0.00000000E+00 0.00000000E+00 2.03116660E-03
 3 17 0.00000000E+00 2.03116511E-03 0.00000000E+00 0.00000000E+00 0.00000000E+00
 3 18 0.00000000E+00 0.00000000E+00 0.00000000E+00 0.00000000E+00 0.00000000E+00
 3 19 0.00000000E+00 0.00000000E+00 0.00000000E+00 0.00000000E+00 0.00000000E+00
 3 20 0.00000000E+00 0.00000000E+00 0.00000000E+00 0.00000000E+00 0.00000000E+00
 3 21 0.00000000E+00 0.00000000E+00 0.00000000E+00 0.00000000E+00 0.00000000E+00
 3 22 0.00000000E+00 0.00000000E+00 0.00000000E+00 0.00000000E+00 0.00000000E+00
 3 23 0.00000000E+00 0.00000000E+00 0.00000000E+00 0.00000000E+00 0.00000000E+00
 3 24 0.00000000E+00 7.36765311E-03 0.00000000E+00 0.00000000E+00-1.91577413E-03
 3 25 0.00000000E+00 0.00000000E+00 0.00000000E+00 0.00000000E+00 0.00000000E+00
 3 26 0.00000000E+00 0.00000000E+00 0.00000000E+00 0.00000000E+00 0.00000000E+00
 3 27 0.00000000E+00 0.00000000E+00 0.00000000E+00 0.00000000E+00 2.53418609E-04
 3 28 0.00000000E+00 0.00000000E+00 0.00000000E+00 0.00000000E+00-1.69998323E-04
 3 29 0.00000000E+00-1.69998419E-04 0.00000000E+00 0.00000000E+00 0.00000000E+00
 3 30 0.00000000E+00 0.00000000E+00 0.00000000E+00 0.00000000E+00 0.00000000E+00
 3 31 0.00000000E+00 0.00000000E+00 0.00000000E+00 0.00000000E+00 0.00000000E+00
 3 32 0.00000000E+00 0.00000000E+00 0.00000000E+00 0.00000000E+00
 4  1 0.00000000E+00 0.00000000E+00 0.00000000E+00 0.00000000E+00 0.00000000E+00
 4  2 0.00000000E+00 0.00000000E+00 0.00000000E+00 9.95331722E-01 0.00000000E+00
 4  3 0.00000000E+00 3.40842017E-02 0.00000000E+00 0.00000000E+00-2.36871752E-02
 4  4 0.00000000E+00 0.00000000E+00 2.69882203E-03 0.00000000E+00 0.00000000E+00
 4  5 7.33688070E-04 0.00000000E+00 0.00000000E+00-8.02987505E-03 0.00000000E+00
 4  6 0.00000000E+00 0.00000000E+00 0.00000000E+00 0.00000000E+00 0.00000000E+00
 4  7 0.00000000E+00 0.00000000E+00 0.00000000E+00 0.00000000E+00 0.00000000E+00
 4  8 0.00000000E+00 0.00000000E+00 0.00000000E+00 0.00000000E+00 0.00000000E+00
 4  9 0.00000000E+00 0.00000000E+00 0.00000000E+00 0.00000000E+00 0.00000000E+00
 4 10 0.00000000E+00 0.00000000E+00 0.00000000E+00 0.00000000E+00 0.00000000E+00
 4 11 0.00000000E+00 0.00000000E+00 0.00000000E+00 0.00000000E+00 0.00000000E+00
 4 12 0.00000000E+00 7.58966333E-04 0.00000000E+00 2.03651889E-03 0.00000000E+00
 4 13-3.05477908E-03 0.00000000E+00 0.00000000E+00 0.00000000E+00 0.00000000E+00
 4 14 0.00000000E+00 1.55221063E-03 0.00000000E+00 4.16501903E-03 0.00000000E+00
 4 15-6.24752812E-03 0.00000000E+00 0.00000000E+00 0.00000000E+00 0.00000000E+00
 4 16 0.00000000E+00 7.56970768E-04 0.00000000E+00 2.03116534E-03 0.00000000E+00
 4 17-3.04674820E-03 0.00000000E+00 0.00000000E+00 0.00000000E+00 0.00000000E+00
 4 18 0.00000000E+00 0.00000000E+00 0.00000000E+00 0.00000000E+00 0.00000000E+00
 4 19 0.00000000E+00 0.00000000E+00 0.00000000E+00 0.00000000E+00 0.00000000E+00
 4 20 0.00000000E+00 0.00000000E+00 0.00000000E+00 0.00000000E+00 0.00000000E+00
 4 21 0.00000000E+00 0.00000000E+00 0.00000000E+00 0.00000000E+00 0.00000000E+00
 4 22 0.00000000E+00 0.00000000E+00 0.00000000E+00 0.00000000E+00 0.00000000E+00
 4 23 0.00000000E+00 0.00000000E+00 0.00000000E+00 0.00000000E+00 0.00000000E+00
 4 24 0.00000000E+00 0.00000000E+00 0.00000000E+00 7.36765449E-03 0.00000000E+00
 4 25 0.00000000E+00-1.91577441E-03 0.00000000E+00 0.00000000E+00 0.00000000E+00
 4 26 0.00000000E+00 0.00000000E+00 0.00000000E+00 0.00000000E+00 0.00000000E+00
 4 27 0.00000000E+00 0.00000000E+00 0.00000000E+00 0.00000000E+00 0.00000000E+00
 4 28 0.00000000E+00-6.33548197E-05 0.00000000E+00-1.69997719E-04 0.00000000E+00
 4 29 2.54997129E-04 0.00000000E+00 0.00000000E+00 0.00000000E+00 0.00000000E+00
 4 30 0.00000000E+00 0.00000000E+00 0.00000000E+00 0.00000000E+00 0.00000000E+00
 4 31 0.00000000E+00 0.00000000E+00 0.00000000E+00 0.00000000E+00 0.00000000E+00
 4 32 0.00000000E+00 0.00000000E+00 0.00000000E+00 0.00000000E+00
 5  1-8.98616975E-04 9.99395195E-01-1.38742243E-03 3.36036675E-04-8.75159295E-06
 5  2 7.10188053E-04 0.00000000E+00 0.00000000E+00 0.00000000E+00 0.00000000E+00
 5  3 0.00000000E+00 0.00000000E+00 0.00000000E+00 0.00000000E+00 0.00000000E+00
 5  4 0.00000000E+00 0.00000000E+00 0.00000000E+00 0.00000000E+00 0.00000000E+00
 5  5 0.00000000E+00 0.00000000E+00 0.00000000E+00 0.00000000E+00 2.34965834E-08
 5  6-1.06370989E-07 8.28744055E-08 0.00000000E+00 0.00000000E+00 0.00000000E+00
 5  7 1.01874902E-07-6.98493297E-09-9.48899688E-08 0.00000000E+00 0.00000000E+00
 5  8 0.00000000E+00 5.37000257E-08-7.80105847E-09-4.58989673E-08 0.00000000E+00
 5  9 0.00000000E+00 0.00000000E+00 1.38414484E-08-2.88016612E-09-1.09612823E-08
 5 10 0.00000000E+00 0.00000000E+00 0.00000000E+00-1.58577773E-07-4.03277182E-08
 5 11 1.98905491E-07 0.00000000E+00 0.00000000E+00 0.00000000E+00 0.00000000E+00
 5 12 0.00000000E+00 0.00000000E+00 0.00000000E+00 0.00000000E+00 0.00000000E+00
 5 13 0.00000000E+00 0.00000000E+00 0.00000000E+00 0.00000000E+00 0.00000000E+00
 5 14 0.00000000E+00 0.00000000E+00 0.00000000E+00 0.00000000E+00 0.00000000E+00
 5 15 0.00000000E+00 0.00000000E+00 0.00000000E+00 0.00000000E+00 0.00000000E+00
 5 16 0.00000000E+00 0.00000000E+00 0.00000000E+00 0.00000000E+00 0.00000000E+00
 5 17 0.00000000E+00 0.00000000E+00 0.00000000E+00 0.00000000E+00 1.64352173E-06
 5 18-4.11104203E-07-4.11293291E-07 0.00000000E+00 0.00000000E+00 0.00000000E+00
 5 19 0.00000000E+00 0.00000000E+00 0.00000000E+00-1.44368776E-06-1.44335560E-06
 5 20 2.16584168E-06 0.00000000E+00 0.00000000E+00 0.00000000E+00-3.71611943E-04
 5 21 9.29029576E-05 9.29029596E-05 0.00000000E+00 0.00000000E+00 0.00000000E+00
 5 22 0.00000000E+00 0.00000000E+00 0.00000000E+00 3.26390512E-04 3.26390508E-04
 5 23-4.89585717E-04 0.00000000E+00 0.00000000E+00 0.00000000E+00-1.04828113E-04
 5 24 3.72986160E-05 0.00000000E+00 0.00000000E+00 0.00000000E+00 0.00000000E+00
 5 25 0.00000000E+00 0.00000000E+00 6.97672416E-09-1.88069099E-09-5.09603317E-09
 5 26 0.00000000E+00 0.00000000E+00 0.00000000E+00-1.00374870E-08 2.23411273E-09
 5 27 7.80337426E-09 0.00000000E+00 0.00000000E+00 0.00000000E+00 0.00000000E+00
 5 28 0.00000000E+00 0.00000000E+00 0.00000000E+00 0.00000000E+00 0.00000000E+00
 5 29 0.00000000E+00 0.00000000E+00 0.00000000E+00 0.00000000E+00 2.12869597E-04
 5 30-5.32174089E-05-5.32174736E-05 0.00000000E+00 0.00000000E+00 0.00000000E+00
 5 31 0.00000000E+00 0.00000000E+00 0.00000000E+00-1.86965567E-04-1.86965453E-04
 5 32 2.80448339E-04 0.00000000E+00 0.00000000E+00 0.00000000E+00
 6  1 0.00000000E+00 0.00000000E+00 0.00000000E+00 0.00000000E+00 0.00000000E+00
 6  2 0.00000000E+00 0.00000000E+00 0.00000000E+00 0.00000000E+00 0.00000000E+00
 6  3 0.00000000E+00 0.00000000E+00 0.00000000E+00 0.00000000E+00 0.00000000E+00
 6  4 0.00000000E+00 0.00000000E+00 0.00000000E+00 0.00000000E+00 0.00000000E+00
 6  5 0.00000000E+00 0.00000000E+00 0.00000000E+00 0.00000000E+00 0.00000000E+00
 6  6 0.00000000E+00 0.00000000E+00 9.90632706E-01 0.00000000E+00 0.00000000E+00
 6  7 0.00000000E+00 0.00000000E+00 0.00000000E+00-8.80844238E-02 0.00000000E+00
 6  8 0.00000000E+00 0.00000000E+00 0.00000000E+00 0.00000000E+00-1.28379865E-02
 6  9 0.00000000E+00 0.00000000E+00 0.00000000E+00 0.00000000E+00 0.00000000E+00
 6 10 3.88021281E-04 0.00000000E+00 0.00000000E+00 0.00000000E+00 0.00000000E+00
 6 11 0.00000000E+00 2.01489865E-02 0.00000000E+00 0.00000000E+00 0.00000000E+00
 6 12 0.00000000E+00 0.00000000E+00 0.00000000E+00 0.00000000E+00 0.00000000E+00
 6 13 0.00000000E+00 0.00000000E+00 0.00000000E+00 0.00000000E+00 0.00000000E+00
 6 14 0.00000000E+00 0.00000000E+00 0.00000000E+00 0.00000000E+00 0.00000000E+00
 6 15 0.00000000E+00 0.00000000E+00 0.00000000E+00 0.00000000E+00 0.00000000E+00
 6 16 0.00000000E+00 0.00000000E+00 0.00000000E+00 0.00000000E+00 0.00000000E+00
 6 17 0.00000000E+00 0.00000000E+00 0.00000000E+00 0.00000000E+00 0.00000000E+00
 6 18 0.00000000E+00 0.00000000E+00-9.75717573E-04 0.00000000E+00 2.43929460E-03
 6 19 0.00000000E+00 0.00000000E+00 0.00000000E+00 0.00000000E+00 0.00000000E+00
 6 20 0.00000000E+00 0.00000000E+00 0.00000000E+00-1.96359463E-03 0.00000000E+00
 6 21 0.00000000E+00 0.00000000E+00-2.53534631E-04 0.00000000E+00 6.33837355E-04
 6 22 0.00000000E+00 0.00000000E+00 0.00000000E+00 0.00000000E+00 0.00000000E+00
 6 23 0.00000000E+00 0.00000000E+00 0.00000000E+00-5.10229646E-04 0.00000000E+00
 6 24 0.00000000E+00 0.00000000E+00 0.00000000E+00 0.00000000E+00 0.00000000E+00
 6 25 0.00000000E+00 0.00000000E+00 0.00000000E+00 0.00000000E+00 0.00000000E+00
 6 26 7.42207372E-04 0.00000000E+00 0.00000000E+00 0.00000000E+00 0.00000000E+00
 6 27 0.00000000E+00-5.61264068E-04 0.00000000E+00 0.00000000E+00 0.00000000E+00
 6 28 0.00000000E+00 0.00000000E+00 0.00000000E+00 0.00000000E+00 0.00000000E+00
 6 29 0.00000000E+00 0.00000000E+00 0.00000000E+00 0.00000000E+00 0.00000000E+00
 6 30 0.00000000E+00 0.00000000E+00-9.58465192E-05 0.00000000E+00 2.39616059E-04
 6 31 0.00000000E+00 0.00000000E+00 0.00000000E+00 0.00000000E+00 0.00000000E+00
 6 32 0.00000000E+00 0.00000000E+00 0.00000000E+00-1.92887078E-04
 7  1 1.81890528E-08-1.18170137E-07-2.09763714E-08 9.23891278E-09 9.92652245E-10
 7  2-2.88578239E-08 0.00000000E+00 0.00000000E+00 0.00000000E+00 0.00000000E+00
 7  3 0.00000000E+00 0.00000000E+00 0.00000000E+00 0.00000000E+00 0.00000000E+00
 7  4 0.00000000E+00 0.00000000E+00 0.00000000E+00 0.00000000E+00 0.00000000E+00
 7  5 0.00000000E+00 0.00000000E+00 0.00000000E+00 0.00000000E+00-5.27776893E-07
 7  6-8.57912821E-01 8.57913349E-01 0.00000000E+00 0.00000000E+00 0.00000000E+00
 7  7-7.52728308E-08 7.62834142E-02-7.62833389E-02 0.00000000E+00 0.00000000E+00
 7  8 0.00000000E+00-1.58086442E-08 1.11180384E-02-1.11180226E-02 0.00000000E+00
 7  9 0.00000000E+00 0.00000000E+00-3.89896131E-09-3.36032752E-04 3.36036651E-04
 7 10 0.00000000E+00 0.00000000E+00 0.00000000E+00-4.95380395E-09-1.74495410E-02
 7 11 1.74495460E-02 0.00000000E+00 0.00000000E+00 0.00000000E+00 0.00000000E+00
 7 12 0.00000000E+00 0.00000000E+00 0.00000000E+00 0.00000000E+00 0.00000000E+00
 7 13 0.00000000E+00 0.00000000E+00 0.00000000E+00 0.00000000E+00 0.00000000E+00
 7 14 0.00000000E+00 0.00000000E+00 0.00000000E+00 0.00000000E+00 0.00000000E+00
 7 15 0.00000000E+00 0.00000000E+00 0.00000000E+00 0.00000000E+00 0.00000000E+00
 7 16 0.00000000E+00 0.00000000E+00 0.00000000E+00 0.00000000E+00 0.00000000E+00
 7 17 0.00000000E+00 0.00000000E+00 0.00000000E+00 0.00000000E+00 3.30352858E-09
 7 18 1.29075417E-03-1.29074995E-03 0.00000000E+00 0.00000000E+00 0.00000000E+00
 7 19 0.00000000E+00 0.00000000E+00 0.00000000E+00-2.26736395E-03 2.26735815E-03
 7 20-8.01335964E-10 0.00000000E+00 0.00000000E+00 0.00000000E+00 8.59033350E-10
 7 21 3.35396765E-04-3.35394305E-04 0.00000000E+00 0.00000000E+00 0.00000000E+00
 7 22 0.00000000E+00 0.00000000E+00 0.00000000E+00-5.89163304E-04 5.89161795E-04
 7 23-1.40601405E-09 0.00000000E+00 0.00000000E+00 0.00000000E+00-9.00339806E-09
 7 24 7.05406313E-09 0.00000000E+00 0.00000000E+00 0.00000000E+00 0.00000000E+00
 7 25 0.00000000E+00 0.00000000E+00-1.62017176E-09-6.42769060E-04 6.42770680E-04
 7 26 0.00000000E+00 0.00000000E+00 0.00000000E+00 1.85230766E-09 4.86067191E-04
 7 27-4.86069043E-04 0.00000000E+00 0.00000000E+00 0.00000000E+00 0.00000000E+00
 7 28 0.00000000E+00 0.00000000E+00 0.00000000E+00 0.00000000E+00 0.00000000E+00
 7 29 0.00000000E+00 0.00000000E+00 0.00000000E+00 0.00000000E+00 2.42423312E-10
 7 30 1.26792582E-04-1.26792583E-04 0.00000000E+00 0.00000000E+00 0.00000000E+00
 7 31 0.00000000E+00 0.00000000E+00 0.00000000E+00-2.22726616E-04 2.22726190E-04
 7 32 2.13034229E-10 0.00000000E+00 0.00000000E+00 0.00000000E+00
 8  1 0.00000000E+00 0.00000000E+00 0.00000000E+00 0.00000000E+00 0.00000000E+00
 8  2 0.00000000E+00 0.00000000E+00 0.00000000E+00 0.00000000E+00 0.00000000E+00
 8  3 0.00000000E+00 0.00000000E+00 0.00000000E+00 0.00000000E+00 0.00000000E+00
 8  4 0.00000000E+00 0.00000000E+00 0.00000000E+00 0.00000000E+00 0.00000000E+00
 8  5 0.00000000E+00 0.00000000E+00 0.00000000E+00 0.00000000E+00 0.00000000E+00
 8  6 0.00000000E+00 0.00000000E+00 0.00000000E+00 9.90632692E-01 0.00000000E+00
 8  7 0.00000000E+00 0.00000000E+00 0.00000000E+00 0.00000000E+00-8.80844633E-02
 8  8 0.00000000E+00 0.00000000E+00 0.00000000E+00 0.00000000E+00 0.00000000E+00
 8  9-1.28380033E-02 0.00000000E+00 0.00000000E+00 0.00000000E+00 0.00000000E+00
 8 10 0.00000000E+00 3.88017090E-04 0.00000000E+00 0.00000000E+00 0.00000000E+00
 8 11 0.00000000E+00 0.00000000E+00 2.01490355E-02 0.00000000E+00 0.00000000E+00
 8 12 0.00000000E+00 0.00000000E+00 0.00000000E+00 0.00000000E+00 0.00000000E+00
 8 13 0.00000000E+00 0.00000000E+00 0.00000000E+00 0.00000000E+00 0.00000000E+00
 8 14 0.00000000E+00 0.00000000E+00 0.00000000E+00 0.00000000E+00 0.00000000E+00
 8 15 0.00000000E+00 0.00000000E+00 0.00000000E+00 0.00000000E+00 0.00000000E+00
 8 16 0.00000000E+00 0.00000000E+00 0.00000000E+00 0.00000000E+00 0.00000000E+00
 8 17 0.00000000E+00 0.00000000E+00 0.00000000E+00 0.00000000E+00 0.00000000E+00
 8 18 0.00000000E+00 0.00000000E+00 0.00000000E+00-9.75716889E-04 0.00000000E+00
 8 19 0.00000000E+00 2.43929080E-03 0.00000000E+00 0.00000000E+00 0.00000000E+00
 8 20 0.00000000E+00 0.00000000E+00-1.96359045E-03 0.00000000E+00 0.00000000E+00
 8 21 0.00000000E+00 0.00000000E+00 0.00000000E+00-2.53535006E-04 0.00000000E+00
 8 22 0.00000000E+00 6.33837937E-04 0.00000000E+00 0.00000000E+00 0.00000000E+00
 8 23 0.00000000E+00 0.00000000E+00-5.10229923E-04 0.00000000E+00 0.00000000E+00
 8 24 0.00000000E+00 0.00000000E+00 0.00000000E+00 0.00000000E+00 0.00000000E+00
 8 25 0.00000000E+00 0.00000000E+00 0.00000000E+00 0.00000000E+00 0.00000000E+00
 8 26 0.00000000E+00 7.42205347E-04 0.00000000E+00 0.00000000E+00 0.00000000E+00
 8 27 0.00000000E+00 0.00000000E+00-5.61261225E-04 0.00000000E+00 0.00000000E+00
 8 28 0.00000000E+00 0.00000000E+00 0.00000000E+00 0.00000000E+00 0.00000000E+00
 8 29 0.00000000E+00 0.00000000E+00 0.00000000E+00 0.00000000E+00 0.00000000E+00
 8 30 0.00000000E+00 0.00000000E+00 0.00000000E+00-9.58463008E-05 0.00000000E+00
 8 31 0.00000000E+00 2.39615286E-04 0.00000000E+00 0.00000000E+00 0.00000000E+00
 8 32 0.00000000E+00 0.00000000E+00-1.92886335E-04 0.00000000E+00
 9  1 0.00000000E+00 0.00000000E+00 0.00000000E+00 0.00000000E+00 0.00000000E+00
 9  2 0.00000000E+00 0.00000000E+00 0.00000000E+00 3.36530627E-02 0.00000000E+00
 9  3 0.00000000E+00 1.26693573E-01 0.00000000E+00 0.00000000E+00 7.01949502E-05
 9  4 0.00000000E+00 0.00000000E+00 7.08109213E-02 0.00000000E+00 0.00000000E+00
 9  5-2.64660084E-02 0.00000000E+00 0.00000000E+00 9.15055962E-01 0.00000000E+00
 9  6 0.00000000E+00 0.00000000E+00 0.00000000E+00 0.00000000E+00 0.00000000E+00
 9  7 0.00000000E+00 0.00000000E+00 0.00000000E+00 0.00000000E+00 0.00000000E+00
 9  8 0.00000000E+00 0.00000000E+00 0.00000000E+00 0.00000000E+00 0.00000000E+00
 9  9 0.00000000E+00 0.00000000E+00 0.00000000E+00 0.00000000E+00 0.00000000E+00
 9 10 0.00000000E+00 0.00000000E+00 0.00000000E+00 0.00000000E+00 0.00000000E+00
 9 11 0.00000000E+00 0.00000000E+00 0.00000000E+00 0.00000000E+00 0.00000000E+00
 9 12 0.00000000E+00 1.76696168E-03 0.00000000E+00 4.74127127E-03 0.00000000E+00
 9 13-7.11189913E-03 0.00000000E+00 0.00000000E+00 0.00000000E+00 0.00000000E+00
 9 14 0.00000000E+00 2.38058547E-04 0.00000000E+00 6.38774803E-04 0.00000000E+00
 9 15-9.58163859E-04 0.00000000E+00 0.00000000E+00 0.00000000E+00 0.00000000E+00
 9 16 0.00000000E+00-1.37575326E-04 0.00000000E+00-3.69154179E-04 0.00000000E+00
 9 17 5.53730847E-04 0.00000000E+00 0.00000000E+00 0.00000000E+00 0.00000000E+00
 9 18 0.00000000E+00 0.00000000E+00 0.00000000E+00 0.00000000E+00 0.00000000E+00
 9 19 0.00000000E+00 0.00000000E+00 0.00000000E+00 0.00000000E+00 0.00000000E+00
 9 20 0.00000000E+00 0.00000000E+00 0.00000000E+00 0.00000000E+00 0.00000000E+00
 9 21 0.00000000E+00 0.00000000E+00 0.00000000E+00 0.00000000E+00 0.00000000E+00
 9 22 0.00000000E+00 0.00000000E+00 0.00000000E+00 0.00000000E+00 0.00000000E+00
 9 23 0.00000000E+00 0.00000000E+00 0.00000000E+00 0.00000000E+00 0.00000000E+00
 9 24 0.00000000E+00 0.00000000E+00 0.00000000E+00-1.77731830E-01 0.00000000E+00
 9 25 0.00000000E+00 4.35617206E-02 0.00000000E+00 0.00000000E+00 0.00000000E+00
 9 26 0.00000000E+00 0.00000000E+00 0.00000000E+00 0.00000000E+00 0.00000000E+00
 9 27 0.00000000E+00 0.00000000E+00 0.00000000E+00 0.00000000E+00 0.00000000E+00
 9 28 0.00000000E+00-6.75588146E-05 0.00000000E+00-1.81276452E-04 0.00000000E+00
 9 29 2.71916113E-04 0.00000000E+00 0.00000000E+00 0.00000000E+00 0.00000000E+00
 9 30 0.00000000E+00 0.00000000E+00 0.00000000E+00 0.00000000E+00 0.00000000E+00
 9 31 0.00000000E+00 0.00000000E+00 0.00000000E+00 0.00000000E+00 0.00000000E+00