 $CONTRL 
     SCFTYP=ROHF 
     MULT=3
     ICHARG=0 
     RUNTYP=ENERGY
     MAXIT=150
     ECP=READ
     ISPHER=1
 $END

 $SYSTEM 
     KDIAG=3
     MWORDS=100
 $END

$SCF
!    DIRSCF=.t.
!    DIIS=.t.
!    DAMP=.t.
!    SHIFT=.t.
    RSTRCT=.t.
$END

 $GUESS
!    GUESS=HUCKEL
    GUESS=MOREAD
    NORB=22
    NORDER=1
    IORDER(5)=5,6,13,7,8,9,10,11,12
 $END


 $DATA  

C1
Ti 22 0.0 0.0 0.0
S  13
  1      68.910511  0.00061600
  2      33.720700  -0.00750100
  3      18.159676  0.01221800
  4      12.419305  0.14473900
  5       7.532195  -0.32862100
  6       3.504444  -0.31751700
  7       1.910727  0.35742200
  8       0.888840  0.67140600
  9       0.447198  0.28222600
 10       0.281192  0.03867300
 11       0.100258  0.00455900
 12       0.046525  -0.00156500
 13       0.021840  0.00039800
S  13
  1      68.910511  -0.00015600
  2      33.720700  0.00196600
  3      18.159676  -0.00399400
  4      12.419305  -0.03637700
  5       7.532195  0.08859300
  6       3.504444  0.08563000
  7       1.910727  -0.10599300
  8       0.888840  -0.23742100
  9       0.447198  -0.23535900
 10       0.281192  -0.01296000
 11       0.100258  0.43358200
 12       0.046525  0.57787300
 13       0.021840  0.16436000
S  13
  1      68.910511  0.00063500
  2      33.720700  -0.00646800
  3      18.159676  0.02344400
  4      12.419305  0.03892100
  5       7.532195  -0.14118000
  6       3.504444  -0.21476500
  7       1.910727  0.32015100
  8       0.888840  0.45106200
  9       0.447198  0.85519100
 10       0.281192  -1.20922400
 11       0.100258  -1.31948100
 12       0.046525  0.86651700
 13       0.021840  0.61891600
S  13
  1      68.910511  -0.00117800
  2      33.720700  0.01187700
  3      18.159676  -0.04724000
  4      12.419305  -0.05092200
  5       7.532195  0.23774600
  6       3.504444  0.40318500
  7       1.910727  -0.79096100
  8       0.888840  -1.10227600
  9       0.447198  0.20944600
 10       0.281192  2.52735200
 11       0.100258  -1.78904100
 12       0.046525  -0.86784200
 13       0.021840  1.42739500
S  13
  1      68.910511  0.00011500
  2      33.720700  0.00283300
  3      18.159676  0.00614100
  4      12.419305  -0.20968200
  5       7.532195  0.51836700
  6       3.504444  0.30416400
  7       1.910727  -1.23286300
  8       0.888840  -2.09050800
  9       0.447198  7.09271500
 10       0.281192  -4.54374400
 11       0.100258  -2.24827000
 12       0.046525  4.47391800
 13       0.021840  -2.42629600
S  1
  1       0.021840  1.00000000
P  13
  1      84.914002  0.00009300
  2      42.855051  -0.00083600
  3      21.700131  0.00867900
  4      12.214690  -0.01117800
  5       8.319164  -0.07776700
  6       4.091071  -0.00611300
  7       2.286543  0.27182800
  8       1.159810  0.45958500
  9       0.591343  0.31590000
 10       0.312862  0.07168300
 11       0.184828  0.01054100
 12       0.068590  0.00004500
 13       0.026791  -0.00083700
P  13
  1      84.914002  0.00002000
  2      42.855051  -0.00004900
  3      21.700131  -0.00076100
  4      12.214690  -0.00057500
  5       8.319164  0.01828400
  6       4.091071  -0.00594300
  7       2.286543  -0.04321200
  8       1.159810  -0.11251300
  9       0.591343  -0.05207300
 10       0.312862  -0.09226300
 11       0.184828  0.24394600
 12       0.068590  0.41310100
 13       0.026791  0.54398500
P  13
  1      84.914002  0.00001900
  2      42.855051  0.00013800
  3      21.700131  -0.00462200
  4      12.214690  0.00446500
  5       8.319164  0.06576000
  6       4.091071  -0.01892700
  7       2.286543  -0.22252400
  8       1.159810  -0.52389000
  9       0.591343  -0.07127700
 10       0.312862  0.81271200
 11       0.184828  0.62549800
 12       0.068590  -0.81218900
 13       0.026791  -0.18579600
P  13
  1      84.914002  -0.00025700
  2      42.855051  0.00172500
  3      21.700131  -0.01264600
  4      12.214690  0.02906200
  5       8.319164  0.05897900
  6       4.091071  0.03080600
  7       2.286543  -0.52437300
  8       1.159810  -0.72096800
  9       0.591343  1.02320400
 10       0.312862  1.97387400
 11       0.184828  -2.80509200
 12       0.068590  0.60795400
 13       0.026791  0.44765300
P  13
  1      84.914002  0.00027100
  2      42.855051  -0.00190200
  3      21.700131  0.01541200
  4      12.214690  -0.03758600
  5       8.319164  -0.12453600
  6       4.091071  0.04081200
  7       2.286543  1.34382300
  8       1.159810  -0.26941100
  9       0.591343  -3.72959000
 10       0.312862  5.88498300
 11       0.184828  -3.11385300
 12       0.068590  -0.25697300
 13       0.026791  0.71073300
P  1
  1       0.026791  1.00000000
D  11
  1      77.434559  0.00002200
  2      27.708477  0.00421800
  3      12.914284  0.03008700
  4       6.062674  0.08482100
  5       2.863898  0.17111000
  6       1.386559  0.24745100
  7       0.677058  0.27731000
  8       0.329864  0.26107700
  9       0.159474  0.19033600
 10       0.076174  0.11938500
 11       0.028570  0.03129700
D  11
  1      77.434559  -0.00002500
  2      27.708477  -0.00431100
  3      12.914284  -0.03091300
  4       6.062674  -0.08804900
  5       2.863898  -0.17833000
  6       1.386559  -0.23433500
  7       0.677058  -0.19577500
  8       0.329864  0.06587200
  9       0.159474  0.33053600
 10       0.076174  0.46122900
 11       0.028570  0.18427300
D  11
  1      77.434559  0.00001000
  2      27.708477  0.00618700
  3      12.914284  0.04263000
  4       6.062674  0.12752400
  5       2.863898  0.24828900
  6       1.386559  0.25976100
  7       0.677058  -0.07079400
  8       0.329864  -0.51939600
  9       0.159474  -0.37365800
 10       0.076174  0.45506700
 11       0.028570  0.48958600
D  11
  1      77.434559  0.00001100
  2      27.708477  -0.00802600
  3      12.914284  -0.05387500
  4       6.062674  -0.16879500
  5       2.863898  -0.31234400
  6       1.386559  -0.17203100
  7       0.677058  0.58763300
  8       0.329864  0.52859200
  9       0.159474  -0.85964400
 10       0.076174  -0.27383100
 11       0.028570  0.80275400
D  1
  1       0.028570  1.00000000
F  1
  1       0.193613  1.00000000
F  1
  1       0.675430  1.00000000
F  1
  1       2.356279  1.00000000
G  1
  1       0.402576  1.00000000
G  1
  1       1.597247  1.00000000
S  1
  1       1.523349  1.00000000
S  1
  1       1.707554  1.00000000
P  1
  1       1.270037  1.00000000
P  1
  1       4.415783  1.00000000
D  1
  1       1.527212  1.00000000
D  1
  1       2.503695  1.00000000
F  1
  1       3.304687  1.00000000
G  1
  1       3.520886  1.00000000

 $END

 $ECP
Ti-ccECP GEN 10 2
4
  12.00000000 1 18.41366202
 220.96394426 3 15.92292414
 -94.29025824 2 13.65000623
   0.09791142 2  5.09555210
2
 173.94657235 2 12.70580613
  18.83768333 2  6.11178551
2
 111.45672882 2 12.64091929
  11.17702682 2  5.35437415
 $END

 $VEC   
 1  1 9.99868076E-01-5.85072955E-04-5.45552878E-04 9.12255942E-05 1.63205801E-04
 1  2 6.66740545E-04 0.00000000E+00 0.00000000E+00 0.00000000E+00 0.00000000E+00
 1  3 0.00000000E+00 0.00000000E+00 0.00000000E+00 0.00000000E+00 0.00000000E+00
 1  4 0.00000000E+00 0.00000000E+00 0.00000000E+00 0.00000000E+00 0.00000000E+00
 1  5 0.00000000E+00 0.00000000E+00 0.00000000E+00 0.00000000E+00 6.29467256E-11
 1  6-1.75762937E-09 1.69468265E-09 0.00000000E+00 0.00000000E+00 0.00000000E+00
 1  7-8.72948287E-11 2.57655067E-10-1.70360238E-10 0.00000000E+00 0.00000000E+00
 1  8 0.00000000E+00 7.90765756E-10-1.28044487E-09 4.89679112E-10 0.00000000E+00
 1  9 0.00000000E+00 0.00000000E+00 4.23216385E-10-8.16550489E-10 3.93334103E-10
 1 10 0.00000000E+00 0.00000000E+00 0.00000000E+00-6.71617742E-10 1.32266997E-09
 1 11-6.51052226E-10 0.00000000E+00 0.00000000E+00 0.00000000E+00 0.00000000E+00
 1 12 0.00000000E+00 0.00000000E+00 0.00000000E+00 0.00000000E+00 0.00000000E+00
 1 13 0.00000000E+00 0.00000000E+00 0.00000000E+00 0.00000000E+00 0.00000000E+00
 1 14 0.00000000E+00 0.00000000E+00 0.00000000E+00 0.00000000E+00 0.00000000E+00
 1 15 0.00000000E+00 0.00000000E+00 0.00000000E+00 0.00000000E+00 0.00000000E+00
 1 16 0.00000000E+00 0.00000000E+00 0.00000000E+00 0.00000000E+00 0.00000000E+00
 1 17 0.00000000E+00 0.00000000E+00 0.00000000E+00 0.00000000E+00 9.90338005E-04
 1 18 9.90337925E-04 9.90338043E-04 0.00000000E+00 0.00000000E+00 0.00000000E+00
 1 19 0.00000000E+00 0.00000000E+00 0.00000000E+00-8.69823735E-04-8.69823942E-04
 1 20-8.69823801E-04 0.00000000E+00 0.00000000E+00 0.00000000E+00 7.42536445E-04
 1 21 7.42536473E-04 7.42536384E-04 0.00000000E+00 0.00000000E+00 0.00000000E+00
 1 22 0.00000000E+00 0.00000000E+00 0.00000000E+00-6.52177312E-04-6.52177155E-04
 1 23-6.52177205E-04 0.00000000E+00 0.00000000E+00 0.00000000E+00 9.29898791E-05
 1 24-1.09947438E-04 0.00000000E+00 0.00000000E+00 0.00000000E+00 0.00000000E+00
 1 25 0.00000000E+00 0.00000000E+00-2.99615619E-10 3.01136539E-10 0.00000000E+00
 1 26 0.00000000E+00 0.00000000E+00 0.00000000E+00 0.00000000E+00-1.28758412E-10
 1 27 1.31348573E-10 0.00000000E+00 0.00000000E+00 0.00000000E+00 0.00000000E+00
 1 28 0.00000000E+00 0.00000000E+00 0.00000000E+00 0.00000000E+00 0.00000000E+00
 1 29 0.00000000E+00 0.00000000E+00 0.00000000E+00 0.00000000E+00 1.64678016E-04
 1 30 1.64678013E-04 1.64677991E-04 0.00000000E+00 0.00000000E+00 0.00000000E+00
 1 31 0.00000000E+00 0.00000000E+00 0.00000000E+00-1.44638378E-04-1.44638340E-04
 1 32-1.44638335E-04 0.00000000E+00 0.00000000E+00 0.00000000E+00
 2  1 0.00000000E+00 0.00000000E+00 0.00000000E+00 0.00000000E+00 0.00000000E+00
 2  2 0.00000000E+00 0.00000000E+00 0.00000000E+00 1.00378662E+00 0.00000000E+00
 2  3 0.00000000E+00 5.07782908E-02 0.00000000E+00 0.00000000E+00 3.11762123E-02
 2  4 0.00000000E+00 0.00000000E+00 1.03027377E-02 0.00000000E+00 0.00000000E+00
 2  5-1.76046097E-03 0.00000000E+00 0.00000000E+00-2.44691442E-02 0.00000000E+00
 2  6 0.00000000E+00 0.00000000E+00 0.00000000E+00 0.00000000E+00 0.00000000E+00
 2  7 0.00000000E+00 0.00000000E+00 0.00000000E+00 0.00000000E+00 0.00000000E+00
 2  8 0.00000000E+00 0.00000000E+00 0.00000000E+00 0.00000000E+00 0.00000000E+00
 2  9 0.00000000E+00 0.00000000E+00 0.00000000E+00 0.00000000E+00 0.00000000E+00
 2 10 0.00000000E+00 0.00000000E+00 0.00000000E+00 0.00000000E+00 0.00000000E+00
 2 11 0.00000000E+00 0.00000000E+00 0.00000000E+00 0.00000000E+00 0.00000000E+00
 2 12 0.00000000E+00 1.88947205E-03 0.00000000E+00-1.26749660E-03 0.00000000E+00
 2 13-1.26749616E-03 0.00000000E+00 0.00000000E+00 0.00000000E+00 0.00000000E+00
 2 14 0.00000000E+00 7.04520774E-03 0.00000000E+00-4.72606897E-03 0.00000000E+00
 2 15-4.72606909E-03 0.00000000E+00 0.00000000E+00 0.00000000E+00 0.00000000E+00
 2 16 0.00000000E+00 2.77478550E-03 0.00000000E+00-1.86138277E-03 0.00000000E+00
 2 17-1.86138264E-03 0.00000000E+00 0.00000000E+00 0.00000000E+00 0.00000000E+00
 2 18 0.00000000E+00 0.00000000E+00 0.00000000E+00 0.00000000E+00 0.00000000E+00
 2 19 0.00000000E+00 0.00000000E+00 0.00000000E+00 0.00000000E+00 0.00000000E+00
 2 20 0.00000000E+00 0.00000000E+00 0.00000000E+00 0.00000000E+00 0.00000000E+00
 2 21 0.00000000E+00 0.00000000E+00 0.00000000E+00 0.00000000E+00 0.00000000E+00
 2 22 0.00000000E+00 0.00000000E+00 0.00000000E+00 0.00000000E+00 0.00000000E+00
 2 23 0.00000000E+00 0.00000000E+00 0.00000000E+00 0.00000000E+00 0.00000000E+00
 2 24 0.00000000E+00 0.00000000E+00 0.00000000E+00-1.78477725E-03 0.00000000E+00
 2 25 0.00000000E+00 3.30206061E-04 0.00000000E+00 0.00000000E+00 0.00000000E+00
 2 26 0.00000000E+00 0.00000000E+00 0.00000000E+00 0.00000000E+00 0.00000000E+00
 2 27 0.00000000E+00 0.00000000E+00 0.00000000E+00 0.00000000E+00 0.00000000E+00
 2 28 0.00000000E+00 1.06077377E-03 0.00000000E+00-7.11588636E-04 0.00000000E+00
 2 29-7.11588721E-04 0.00000000E+00 0.00000000E+00 0.00000000E+00 0.00000000E+00
 2 30 0.00000000E+00 0.00000000E+00 0.00000000E+00 0.00000000E+00 0.00000000E+00
 2 31 0.00000000E+00 0.00000000E+00 0.00000000E+00 0.00000000E+00 0.00000000E+00
 2 32 0.00000000E+00 0.00000000E+00 0.00000000E+00 0.00000000E+00
 3  1 0.00000000E+00 0.00000000E+00 0.00000000E+00 0.00000000E+00 0.00000000E+00
 3  2 0.00000000E+00 0.00000000E+00 1.00378662E+00 0.00000000E+00 0.00000000E+00
 3  3 5.07782915E-02 0.00000000E+00 0.00000000E+00 3.11762128E-02 0.00000000E+00
 3  4 0.00000000E+00 1.03027369E-02 0.00000000E+00 0.00000000E+00-1.76046122E-03
 3  5 0.00000000E+00 0.00000000E+00-2.44691441E-02 0.00000000E+00 0.00000000E+00
 3  6 0.00000000E+00 0.00000000E+00 0.00000000E+00 0.00000000E+00 0.00000000E+00
 3  7 0.00000000E+00 0.00000000E+00 0.00000000E+00 0.00000000E+00 0.00000000E+00
 3  8 0.00000000E+00 0.00000000E+00 0.00000000E+00 0.00000000E+00 0.00000000E+00
 3  9 0.00000000E+00 0.00000000E+00 0.00000000E+00 0.00000000E+00 0.00000000E+00
 3 10 0.00000000E+00 0.00000000E+00 0.00000000E+00 0.00000000E+00 0.00000000E+00
 3 11 0.00000000E+00 0.00000000E+00 0.00000000E+00 0.00000000E+00 0.00000000E+00
 3 12 1.88947224E-03 0.00000000E+00-1.26749615E-03 0.00000000E+00 0.00000000E+00
 3 13 0.00000000E+00 0.00000000E+00-1.26749687E-03 0.00000000E+00 0.00000000E+00
 3 14 7.04520758E-03 0.00000000E+00-4.72606929E-03 0.00000000E+00 0.00000000E+00
 3 15 0.00000000E+00 0.00000000E+00-4.72606855E-03 0.00000000E+00 0.00000000E+00
 3 16 2.77478565E-03 0.00000000E+00-1.86138307E-03 0.00000000E+00 0.00000000E+00
 3 17 0.00000000E+00 0.00000000E+00-1.86138253E-03 0.00000000E+00 0.00000000E+00
 3 18 0.00000000E+00 0.00000000E+00 0.00000000E+00 0.00000000E+00 0.00000000E+00
 3 19 0.00000000E+00 0.00000000E+00 0.00000000E+00 0.00000000E+00 0.00000000E+00
 3 20 0.00000000E+00 0.00000000E+00 0.00000000E+00 0.00000000E+00 0.00000000E+00
 3 21 0.00000000E+00 0.00000000E+00 0.00000000E+00 0.00000000E+00 0.00000000E+00
 3 22 0.00000000E+00 0.00000000E+00 0.00000000E+00 0.00000000E+00 0.00000000E+00
 3 23 0.00000000E+00 0.00000000E+00 0.00000000E+00 0.00000000E+00 0.00000000E+00
 3 24 0.00000000E+00 0.00000000E+00-1.78477758E-03 0.00000000E+00 0.00000000E+00
 3 25 3.30206165E-04 0.00000000E+00 0.00000000E+00 0.00000000E+00 0.00000000E+00
 3 26 0.00000000E+00 0.00000000E+00 0.00000000E+00 0.00000000E+00 0.00000000E+00
 3 27 0.00000000E+00 0.00000000E+00 0.00000000E+00 0.00000000E+00 0.00000000E+00
 3 28 1.06077372E-03 0.00000000E+00-7.11588709E-04 0.00000000E+00 0.00000000E+00
 3 29 0.00000000E+00 0.00000000E+00-7.11588577E-04 0.00000000E+00 0.00000000E+00
 3 30 0.00000000E+00 0.00000000E+00 0.00000000E+00 0.00000000E+00 0.00000000E+00
 3 31 0.00000000E+00 0.00000000E+00 0.00000000E+00 0.00000000E+00 0.00000000E+00
 3 32 0.00000000E+00 0.00000000E+00 0.00000000E+00 0.00000000E+00
 4  1 0.00000000E+00 0.00000000E+00 0.00000000E+00 0.00000000E+00 0.00000000E+00
 4  2 0.00000000E+00 1.00378662E+00 0.00000000E+00 0.00000000E+00 5.07782896E-02
 4  3 0.00000000E+00 0.00000000E+00 3.11762127E-02 0.00000000E+00 0.00000000E+00
 4  4 1.03027372E-02 0.00000000E+00 0.00000000E+00-1.76046125E-03 0.00000000E+00
 4  5 0.00000000E+00-2.44691428E-02 0.00000000E+00 0.00000000E+00 0.00000000E+00
 4  6 0.00000000E+00 0.00000000E+00 0.00000000E+00 0.00000000E+00 0.00000000E+00
 4  7 0.00000000E+00 0.00000000E+00 0.00000000E+00 0.00000000E+00 0.00000000E+00
 4  8 0.00000000E+00 0.00000000E+00 0.00000000E+00 0.00000000E+00 0.00000000E+00
 4  9 0.00000000E+00 0.00000000E+00 0.00000000E+00 0.00000000E+00 0.00000000E+00
 4 10 0.00000000E+00 0.00000000E+00 0.00000000E+00 0.00000000E+00 0.00000000E+00
 4 11 0.00000000E+00 0.00000000E+00 0.00000000E+00 0.00000000E+00 1.88947151E-03
 4 12 0.00000000E+00 0.00000000E+00 0.00000000E+00 0.00000000E+00-1.26749590E-03
 4 13 0.00000000E+00-1.26749615E-03 0.00000000E+00 0.00000000E+00 7.04520755E-03
 4 14 0.00000000E+00 0.00000000E+00 0.00000000E+00 0.00000000E+00-4.72606922E-03
 4 15 0.00000000E+00-4.72606858E-03 0.00000000E+00 0.00000000E+00 2.77478544E-03
 4 16 0.00000000E+00 0.00000000E+00 0.00000000E+00 0.00000000E+00-1.86138293E-03
 4 17 0.00000000E+00-1.86138239E-03 0.00000000E+00 0.00000000E+00 0.00000000E+00
 4 18 0.00000000E+00 0.00000000E+00 0.00000000E+00 0.00000000E+00 0.00000000E+00
 4 19 0.00000000E+00 0.00000000E+00 0.00000000E+00 0.00000000E+00 0.00000000E+00
 4 20 0.00000000E+00 0.00000000E+00 0.00000000E+00 0.00000000E+00 0.00000000E+00
 4 21 0.00000000E+00 0.00000000E+00 0.00000000E+00 0.00000000E+00 0.00000000E+00
 4 22 0.00000000E+00 0.00000000E+00 0.00000000E+00 0.00000000E+00 0.00000000E+00
 4 23 0.00000000E+00 0.00000000E+00 0.00000000E+00 0.00000000E+00 0.00000000E+00
 4 24 0.00000000E+00-1.78477775E-03 0.00000000E+00 0.00000000E+00 3.30206177E-04
 4 25 0.00000000E+00 0.00000000E+00 0.00000000E+00 0.00000000E+00 0.00000000E+00
 4 26 0.00000000E+00 0.00000000E+00 0.00000000E+00 0.00000000E+00 0.00000000E+00
 4 27 0.00000000E+00 0.00000000E+00 0.00000000E+00 0.00000000E+00 1.06077378E-03
 4 28 0.00000000E+00 0.00000000E+00 0.00000000E+00 0.00000000E+00-7.11588784E-04
 4 29 0.00000000E+00-7.11588589E-04 0.00000000E+00 0.00000000E+00 0.00000000E+00
 4 30 0.00000000E+00 0.00000000E+00 0.00000000E+00 0.00000000E+00 0.00000000E+00
 4 31 0.00000000E+00 0.00000000E+00 0.00000000E+00 0.00000000E+00 0.00000000E+00
 4 32 0.00000000E+00 0.00000000E+00 0.00000000E+00 0.00000000E+00
 5  1-1.65609618E-04 9.99305157E-01 1.97423101E-03-6.38486810E-05-1.49542937E-05
 5  2 8.12658359E-04 0.00000000E+00 0.00000000E+00 0.00000000E+00 0.00000000E+00
 5  3 0.00000000E+00 0.00000000E+00 0.00000000E+00 0.00000000E+00 0.00000000E+00
 5  4 0.00000000E+00 0.00000000E+00 0.00000000E+00 0.00000000E+00 0.00000000E+00
 5  5 0.00000000E+00 0.00000000E+00 0.00000000E+00 0.00000000E+00-1.21996815E-07
 5  6 1.34675480E-07-1.26786652E-08 0.00000000E+00 0.00000000E+00 0.00000000E+00
 5  7 1.37667603E-08-2.09815472E-08 7.21478684E-09 0.00000000E+00 0.00000000E+00
 5  8 0.00000000E+00-5.06169615E-09-2.94513919E-09 8.00683534E-09 0.00000000E+00
 5  9 0.00000000E+00 0.00000000E+00-3.20341118E-09-7.84673819E-11 3.28187856E-09
 5 10 0.00000000E+00 0.00000000E+00 0.00000000E+00 6.36362373E-08-2.81339921E-08
 5 11-3.55022452E-08 0.00000000E+00 0.00000000E+00 0.00000000E+00 0.00000000E+00
 5 12 0.00000000E+00 0.00000000E+00 0.00000000E+00 0.00000000E+00 0.00000000E+00
 5 13 0.00000000E+00 0.00000000E+00 0.00000000E+00 0.00000000E+00 0.00000000E+00
 5 14 0.00000000E+00 0.00000000E+00 0.00000000E+00 0.00000000E+00 0.00000000E+00
 5 15 0.00000000E+00 0.00000000E+00 0.00000000E+00 0.00000000E+00 0.00000000E+00
 5 16 0.00000000E+00 0.00000000E+00 0.00000000E+00 0.00000000E+00 0.00000000E+00
 5 17 0.00000000E+00 0.00000000E+00 0.00000000E+00 0.00000000E+00-2.71219677E-04
 5 18-2.71218809E-04-2.71218703E-04 0.00000000E+00 0.00000000E+00 0.00000000E+00
 5 19 0.00000000E+00 0.00000000E+00 0.00000000E+00 2.38215065E-04 2.38214880E-04
 5 20 2.38213354E-04 0.00000000E+00 0.00000000E+00 0.00000000E+00 2.81864574E-04
 5 21 2.81865102E-04 2.81864894E-04 0.00000000E+00 0.00000000E+00 0.00000000E+00
 5 22 0.00000000E+00 0.00000000E+00 0.00000000E+00-2.47564676E-04-2.47564310E-04
 5 23-2.47565237E-04 0.00000000E+00 0.00000000E+00 0.00000000E+00 8.44477763E-05
 5 24-1.10986170E-04 0.00000000E+00 0.00000000E+00 0.00000000E+00 0.00000000E+00
 5 25 0.00000000E+00 0.00000000E+00 7.59247763E-10 2.72774313E-11-7.86525194E-10
 5 26 0.00000000E+00 0.00000000E+00 0.00000000E+00-3.47648106E-10 4.82547263E-11
 5 27 2.99393379E-10 0.00000000E+00 0.00000000E+00 0.00000000E+00 0.00000000E+00
 5 28 0.00000000E+00 0.00000000E+00 0.00000000E+00 0.00000000E+00 0.00000000E+00
 5 29 0.00000000E+00 0.00000000E+00 0.00000000E+00 0.00000000E+00 8.75697614E-06
 5 30 8.75707430E-06 8.75702425E-06 0.00000000E+00 0.00000000E+00 0.00000000E+00
 5 31 0.00000000E+00 0.00000000E+00 0.00000000E+00-7.69138425E-06-7.69129633E-06
 5 32-7.69146875E-06 0.00000000E+00 0.00000000E+00 0.00000000E+00
 6  1-5.67782207E-09 1.03697000E-07-6.90875088E-08-1.95918167E-08 4.92767676E-09
 6  2 4.34940713E-08 0.00000000E+00 0.00000000E+00 0.00000000E+00 0.00000000E+00
 6  3 0.00000000E+00 0.00000000E+00 0.00000000E+00 0.00000000E+00 0.00000000E+00
 6  4 0.00000000E+00 0.00000000E+00 0.00000000E+00 0.00000000E+00 0.00000000E+00
 6  5 0.00000000E+00 0.00000000E+00 0.00000000E+00 0.00000000E+00 8.76330928E-01
 6  6-8.35468623E-01-4.08623057E-02 0.00000000E+00 0.00000000E+00 0.00000000E+00
 6  7-1.41952771E-01 1.35333664E-01 6.61910664E-03 0.00000000E+00 0.00000000E+00
 6  8 0.00000000E+00-1.13118157E-02 1.07843553E-02 5.27460373E-04 0.00000000E+00
 6  9 0.00000000E+00 0.00000000E+00 2.83684401E-03-2.70456391E-03-1.32280101E-04
 6 10 0.00000000E+00 0.00000000E+00 0.00000000E+00 3.36071989E-03-3.20406682E-03
 6 11-1.56653067E-04 0.00000000E+00 0.00000000E+00 0.00000000E+00 0.00000000E+00
 6 12 0.00000000E+00 0.00000000E+00 0.00000000E+00 0.00000000E+00 0.00000000E+00
 6 13 0.00000000E+00 0.00000000E+00 0.00000000E+00 0.00000000E+00 0.00000000E+00
 6 14 0.00000000E+00 0.00000000E+00 0.00000000E+00 0.00000000E+00 0.00000000E+00
 6 15 0.00000000E+00 0.00000000E+00 0.00000000E+00 0.00000000E+00 0.00000000E+00
 6 16 0.00000000E+00 0.00000000E+00 0.00000000E+00 0.00000000E+00 0.00000000E+00
 6 17 0.00000000E+00 0.00000000E+00 0.00000000E+00 0.00000000E+00 2.76462171E-03
 6 18-2.63571084E-03-1.28910602E-04 0.00000000E+00 0.00000000E+00 0.00000000E+00
 6 19 0.00000000E+00 0.00000000E+00 0.00000000E+00-2.26447196E-04-4.62994295E-03
 6 20 4.85638991E-03 0.00000000E+00 0.00000000E+00 0.00000000E+00 1.74327842E-03
 6 21-1.66199111E-03-8.12870619E-05 0.00000000E+00 0.00000000E+00 0.00000000E+00
 6 22 0.00000000E+00 0.00000000E+00 0.00000000E+00-1.42790703E-04-2.91948726E-03
 6 23 3.06227775E-03 0.00000000E+00 0.00000000E+00 0.00000000E+00-2.56578665E-08
 6 24 2.19215830E-08 0.00000000E+00 0.00000000E+00 0.00000000E+00 0.00000000E+00
 6 25 0.00000000E+00 0.00000000E+00 2.00393377E-04-1.91050264E-04-9.34311307E-06
 6 26 0.00000000E+00 0.00000000E+00 0.00000000E+00 1.83358975E-05-1.74806192E-05
 6 27-8.55278324E-07 0.00000000E+00 0.00000000E+00 0.00000000E+00 0.00000000E+00
 6 28 0.00000000E+00 0.00000000E+00 0.00000000E+00 0.00000000E+00 0.00000000E+00
 6 29 0.00000000E+00 0.00000000E+00 0.00000000E+00 0.00000000E+00 3.42399564E-04
 6 30-3.26433993E-04-1.59657373E-05 0.00000000E+00 0.00000000E+00 0.00000000E+00
 6 31 0.00000000E+00 0.00000000E+00 0.00000000E+00-2.80455894E-05-5.73420377E-04
 6 32 6.01466113E-04 0.00000000E+00 0.00000000E+00 0.00000000E+00
 7  1 5.67074694E-08 3.36566942E-07 1.23906861E-07 6.07572702E-08-1.10185585E-08
 7  2-3.58388538E-07 0.00000000E+00 0.00000000E+00 0.00000000E+00 0.00000000E+00
 7  3 0.00000000E+00 0.00000000E+00 0.00000000E+00 0.00000000E+00 0.00000000E+00
 7  4 0.00000000E+00 0.00000000E+00 0.00000000E+00 0.00000000E+00 0.00000000E+00
 7  5 0.00000000E+00 0.00000000E+00 0.00000000E+00 0.00000000E+00-4.58766176E-01
 7  6-5.29541763E-01 9.88307939E-01 0.00000000E+00 0.00000000E+00 0.00000000E+00
 7  7 7.43133531E-02 8.57779421E-02-1.60091295E-01 0.00000000E+00 0.00000000E+00
 7  8 0.00000000E+00 5.92183833E-03 6.83538530E-03-1.27572236E-02 0.00000000E+00
 7  9 0.00000000E+00 0.00000000E+00-1.48510201E-03-1.71422977E-03 3.19933177E-03
 7 10 0.00000000E+00 0.00000000E+00 0.00000000E+00-1.75941580E-03-2.03081918E-03
 7 11 3.79023498E-03 0.00000000E+00 0.00000000E+00 0.00000000E+00 0.00000000E+00
 7 12 0.00000000E+00 0.00000000E+00 0.00000000E+00 0.00000000E+00 0.00000000E+00
 7 13 0.00000000E+00 0.00000000E+00 0.00000000E+00 0.00000000E+00 0.00000000E+00
 7 14 0.00000000E+00 0.00000000E+00 0.00000000E+00 0.00000000E+00 0.00000000E+00
 7 15 0.00000000E+00 0.00000000E+00 0.00000000E+00 0.00000000E+00 0.00000000E+00
 7 16 0.00000000E+00 0.00000000E+00 0.00000000E+00 0.00000000E+00 0.00000000E+00
 7 17 0.00000000E+00 0.00000000E+00 0.00000000E+00 0.00000000E+00-1.44730074E-03
 7 18-1.67058150E-03 3.11788413E-03 0.00000000E+00 0.00000000E+00 0.00000000E+00
 7 19 0.00000000E+00 0.00000000E+00 0.00000000E+00 5.47693637E-03-2.93457876E-03
 7 20-2.54235927E-03 0.00000000E+00 0.00000000E+00 0.00000000E+00-9.12619985E-04
 7 21-1.05341332E-03 1.96603333E-03 0.00000000E+00 0.00000000E+00 0.00000000E+00
 7 22 0.00000000E+00 0.00000000E+00 0.00000000E+00 3.45357370E-03-1.85044707E-03
 7 23-1.60312667E-03 0.00000000E+00 0.00000000E+00 0.00000000E+00 6.73134917E-08
 7 24-4.77497019E-08 0.00000000E+00 0.00000000E+00 0.00000000E+00 0.00000000E+00
 7 25 0.00000000E+00 0.00000000E+00-1.04910054E-04-1.21091668E-04 2.26001721E-04
 7 26 0.00000000E+00 0.00000000E+00 0.00000000E+00-9.59774007E-06-1.10799770E-05
 7 27 2.06777170E-05 0.00000000E+00 0.00000000E+00 0.00000000E+00 0.00000000E+00
 7 28 0.00000000E+00 0.00000000E+00 0.00000000E+00 0.00000000E+00 0.00000000E+00
 7 29 0.00000000E+00 0.00000000E+00 0.00000000E+00 0.00000000E+00-1.79248944E-04
 7 30-2.06902366E-04 3.86151183E-04 0.00000000E+00 0.00000000E+00 0.00000000E+00
 7 31 0.00000000E+00 0.00000000E+00 0.00000000E+00 6.78321054E-04-3.63448750E-04
 7 32-3.14872192E-04 0.00000000E+00 0.00000000E+00 0.00000000E+00
 8  1 0.00000000E+00 0.00000000E+00 0.00000000E+00 0.00000000E+00 0.00000000E+00
 8  2 0.00000000E+00-4.33064695E-02 0.00000000E+00 0.00000000E+00 2.18157191E-01
 8  3 0.00000000E+00 0.00000000E+00 6.60775195E-02 0.00000000E+00 0.00000000E+00
 8  4-4.82165872E-02 0.00000000E+00 0.00000000E+00-1.83884408E-02 0.00000000E+00
 8  5 0.00000000E+00 8.42593680E-01 0.00000000E+00 0.00000000E+00 0.00000000E+00
 8  6 0.00000000E+00 0.00000000E+00 0.00000000E+00 0.00000000E+00 0.00000000E+00
 8  7 0.00000000E+00 0.00000000E+00 0.00000000E+00 0.00000000E+00 0.00000000E+00
 8  8 0.00000000E+00 0.00000000E+00 0.00000000E+00 0.00000000E+00 0.00000000E+00
 8  9 0.00000000E+00 0.00000000E+00 0.00000000E+00 0.00000000E+00 0.00000000E+00
 8 10 0.00000000E+00 0.00000000E+00 0.00000000E+00 0.00000000E+00 0.00000000E+00
 8 11 0.00000000E+00 0.00000000E+00 0.00000000E+00 0.00000000E+00 8.62768144E-03
 8 12 0.00000000E+00 0.00000000E+00 0.00000000E+00 0.00000000E+00-5.78762412E-03
 8 13 0.00000000E+00-5.78762520E-03 0.00000000E+00 0.00000000E+00 2.71837891E-03
 8 14 0.00000000E+00 0.00000000E+00 0.00000000E+00 0.00000000E+00-1.82354365E-03
 8 15 0.00000000E+00-1.82354437E-03 0.00000000E+00 0.00000000E+00-5.26959698E-04
 8 16 0.00000000E+00 0.00000000E+00 0.00000000E+00 0.00000000E+00 3.53495372E-04
 8 17 0.00000000E+00 3.53495252E-04 0.00000000E+00 0.00000000E+00 0.00000000E+00
 8 18 0.00000000E+00 0.00000000E+00 0.00000000E+00 0.00000000E+00 0.00000000E+00
 8 19 0.00000000E+00 0.00000000E+00 0.00000000E+00 0.00000000E+00 0.00000000E+00
 8 20 0.00000000E+00 0.00000000E+00 0.00000000E+00 0.00000000E+00 0.00000000E+00
 8 21 0.00000000E+00 0.00000000E+00 0.00000000E+00 0.00000000E+00 0.00000000E+00
 8 22 0.00000000E+00 0.00000000E+00 0.00000000E+00 0.00000000E+00 0.00000000E+00
 8 23 0.00000000E+00 0.00000000E+00 0.00000000E+00 0.00000000E+00 0.00000000E+00
 8 24 0.00000000E+00-4.25117861E-02 0.00000000E+00 0.00000000E+00 5.57308174E-03
 8 25 0.00000000E+00 0.00000000E+00 0.00000000E+00 0.00000000E+00 0.00000000E+00
 8 26 0.00000000E+00 0.00000000E+00 0.00000000E+00 0.00000000E+00 0.00000000E+00
 8 27 0.00000000E+00 0.00000000E+00 0.00000000E+00 0.00000000E+00-1.78662164E-04
 8 28 0.00000000E+00 0.00000000E+00 0.00000000E+00 0.00000000E+00 1.19850262E-04
 8 29 0.00000000E+00 1.19850185E-04 0.00000000E+00 0.00000000E+00 0.00000000E+00
 8 30 0.00000000E+00 0.00000000E+00 0.00000000E+00 0.00000000E+00 0.00000000E+00
 8 31 0.00000000E+00 0.00000000E+00 0.00000000E+00 0.00000000E+00 0.00000000E+00
 8 32 0.00000000E+00 0.00000000E+00 0.00000000E+00 0.00000000E+00
 9  1 0.00000000E+00 0.00000000E+00 0.00000000E+00 0.00000000E+00 0.00000000E+00
 9  2 0.00000000E+00 0.00000000E+00 0.00000000E+00-4.33064691E-02 0.00000000E+00
 9  3 0.00000000E+00 2.18157238E-01 0.00000000E+00 0.00000000E+00 6.60775128E-02
 9  4 0.00000000E+00 0.00000000E+00-4.82165829E-02 0.00000000E+00 0.00000000E+00
 9  5-1.83884393E-02 0.00000000E+00 0.00000000E+00 8.42593630E-01 0.00000000E+00
 9  6 0.00000000E+00 0.00000000E+00 0.00000000E+00 0.00000000E+00 0.00000000E+00
 9  7 0.00000000E+00 0.00000000E+00 0.00000000E+00 0.00000000E+00 0.00000000E+00
 9  8 0.00000000E+00 0.00000000E+00 0.00000000E+00 0.00000000E+00 0.00000000E+00
 9  9 0.00000000E+00 0.00000000E+00 0.00000000E+00 0.00000000E+00 0.00000000E+00
 9 10 0.00000000E+00 0.00000000E+00 0.00000000E+00 0.00000000E+00 0.00000000E+00
 9 11 0.00000000E+00 0.00000000E+00 0.00000000E+00 0.00000000E+00 0.00000000E+00
 9 12 0.00000000E+00 8.62768913E-03 0.00000000E+00-5.78762926E-03 0.00000000E+00
 9 13-5.78763037E-03 0.00000000E+00 0.00000000E+00 0.00000000E+00 0.00000000E+00
 9 14 0.00000000E+00 2.71837989E-03 0.00000000E+00-1.82354423E-03 0.00000000E+00
 9 15-1.82354510E-03 0.00000000E+00 0.00000000E+00 0.00000000E+00 0.00000000E+00
 9 16 0.00000000E+00-5.26959246E-04 0.00000000E+00 3.53495064E-04 0.00000000E+00
 9 17 3.53494952E-04 0.00000000E+00 0.00000000E+00 0.00000000E+00 0.00000000E+00
 9 18 0.00000000E+00 0.00000000E+00 0.00000000E+00 0.00000000E+00 0.00000000E+00
 9 19 0.00000000E+00 0.00000000E+00 0.00000000E+00 0.00000000E+00 0.00000000E+00
 9 20 0.00000000E+00 0.00000000E+00 0.00000000E+00 0.00000000E+00 0.00000000E+00
 9 21 0.00000000E+00 0.00000000E+00 0.00000000E+00 0.00000000E+00 0.00000000E+00
 9 22 0.00000000E+00 0.00000000E+00 0.00000000E+00 0.00000000E+00 0.00000000E+00
 9 23 0.00000000E+00 0.00000000E+00 0.00000000E+00 0.00000000E+00 0.00000000E+00
 9 24 0.00000000E+00 0.00000000E+00 0.00000000E+00-4.25117828E-02 0.00000000E+00
 9 25 0.00000000E+00 5.57308130E-03 0.00000000E+00 0.00000000E+00 0.00000000E+00
 9 26 0.00000000E+00 0.00000000E+00 0.00000000E+00 0.00000000E+00 0.00000000E+00
 9 27 0.00000000E+00 0.00000000E+00 0.00000000E+00 0.00000000E+00 0.00000000E+00
 9 28 0.00000000E+00-1.78662195E-04 0.00000000E+00 1.19850276E-04 0.00000000E+00
 9 29 1.19850212E-04 0.00000000E+00 0.00000000E+00 0.00000000E+00 0.00000000E+00
 9 30 0.00000000E+00 0.00000000E+00 0.00000000E+00 0.00000000E+00 0.00000000E+00
 9 31 0.00000000E+00 0.00000000E+00 0.00000000E+00 0.00000000E+00 0.00000000E+00