 $CONTRL 
     SCFTYP=ROHF
     MULT=3 
     ICHARG=0 
     RUNTYP=ENERGY 
     MAXIT=150 
     PP=READ
 $END

 $CONTRL 
     ISPHER=1 
 $END

 $SYSTEM 
     KDIAG=3
     mwords=125 
 $END

 $GUESS
    GUESS=HUCKEL
 $END

 $DATA  
                                                                                
C1
C 6 0. 0. 0.
s 9
1 13.073594  0.0051583
2 6.541187   0.0603424
3 4.573411   -0.1978471
4 1.637494   -0.0810340
5 0.819297   0.2321726
6 0.409924   0.2914643
7 0.231300   0.4336405
8 0.102619   0.2131940
9 0.051344   0.0049848
s 1
1 0.038873  1.0000000 
s 1
1 0.097183  1.0000000
s 1
1 0.252653  1.0000000
s 1
1 0.505925  1.0000000
s 1
1 1.257512  1.0000000
s 1
1 4.510706  1.0000000
p 9
1 9.934169  0.0209076
2 3.886955  0.0572698
3 1.871016  0.1122682
4 0.935757  0.2130082
5 0.468003  0.2835815
6 0.239473  0.3011207
7 0.117063  0.2016934
8 0.058547  0.0453575
9 0.029281  0.0029775
p 1
1 0.030847  1.0000000 
p 1
1 0.077118  1.0000000
p 1
1 0.189484  1.0000000
p 1
1 0.414159  1.0000000
p 1
1 1.118776  1.0000000
p 1
1 1.394825  1.0000000
d 1
1 0.069768  1.0000000
d 1
1 0.174421  1.0000000
d 1
1 0.444341  1.0000000
d 1
1 1.003440  1.0000000
d 1
1 1.896967  1.0000000
d 1
1 4.570118  1.0000000
f 1
1 0.112501  1.0000000
f 1
1 0.281253  1.0000000
f 1
1 0.667529  1.0000000
f 1
1 1.341662  1.0000000
f 1
1 2.421007  1.0000000
g 1
1 0.217742  1.0000000
g 1
1 0.544354  1.0000000
g 1
1 1.258225  1.0000000
g 1
1 2.358234  1.0000000

 $END

 $ECP
C-QMC GEN 2 1
3
4.00000    1 14.43502 
57.74008   3 8.39889  
-25.81955  2 7.38188  
1
52.13345   2 7.76079 

 $END

