 $CONTRL 
     SCFTYP=ROHF 
     MULT=5
     ICHARG=0 
     RUNTYP=ENERGY
     MAXIT=150
     ECP=READ
     ISPHER=1
 $END

 $SYSTEM 
     KDIAG=3
     MWORDS=1000
 $END

 $SCF
!     DIRSCF=.t. 
!     DIIS=.t. 
!     DAMP=.t. 
!     SHIFT=.t.
     RSTRCT=.t.
 $END

 $GUESS
!    GUESS=HUCKEL
    GUESS=MOREAD
    NORB=22
    NORDER=1
    IORDER(5)=5,7,6,8,9,10
 $END


 $DATA  

C1
Fe 26 0.0 0.0 0.0
S  13
  1      84.322332  0.00078500
  2      44.203528  -0.01278100
  3      23.288963  0.10463500
  4      13.385163  -0.11938500
  5       7.518052  -0.33980400
  6       4.101835  -0.04999400
  7       2.253571  0.47695500
  8       1.134924  0.59322200
  9       0.561550  0.20015100
 10       0.201961  0.00859100
 11       0.108698  -0.00218800
 12       0.053619  0.00067700
 13       0.025823  -0.00014400
S  13
  1      84.322332  -0.00016200
  2      44.203528  0.00292100
  3      23.288963  -0.02546600
  4      13.385163  0.03118200
  5       7.518052  0.08684900
  6       4.101835  0.00684600
  7       2.253571  -0.13185600
  8       1.134924  -0.22774600
  9       0.561550  -0.17307900
 10       0.201961  0.13614200
 11       0.108698  0.43401300
 12       0.053619  0.47755500
 13       0.025823  0.12880400
S  13
  1      84.322332  0.00000200
  2      44.203528  0.00410300
  3      23.288963  -0.04684000
  4      13.385163  0.05283300
  5       7.518052  0.21809400
  6       4.101835  -0.04499900
  7       2.253571  -0.28738600
  8       1.134924  -0.71322000
  9       0.561550  0.24917400
 10       0.201961  1.29987200
 11       0.108698  0.19211900
 12       0.053619  -0.65861600
 13       0.025823  -0.52104700
S  13
  1      84.322332  0.00001200
  2      44.203528  0.00759800
  3      23.288963  -0.09413300
  4      13.385163  0.12765500
  5       7.518052  0.43559800
  6       4.101835  -0.14791100
  7       2.253571  -1.08447700
  8       1.134924  -0.88700300
  9       0.561550  2.44994600
 10       0.201961  0.16797600
 11       0.108698  -2.11466800
 12       0.053619  0.45257900
 13       0.025823  0.80144400
S  13
  1      84.322332  0.00330100
  2      44.203528  -0.02919700
  3      23.288963  0.21322700
  4      13.385163  -0.40810900
  5       7.518052  -0.38565100
  6       4.101835  0.16809300
  7       2.253571  3.10252900
  8       1.134924  -3.36044600
  9       0.561550  -0.53161900
 10       0.201961  4.49398100
 11       0.108698  -3.68975000
 12       0.053619  -0.51060400
 13       0.025823  1.30102100
S  1
  1       0.025823  1.00000000
P  13
  1     125.092775  0.00005600
  2      65.211589  -0.00057200
  3      34.437599  0.00738800
  4      18.930704  -0.02848100
  5      10.873415  -0.06300500
  6       6.012172  0.02485500
  7       3.372205  0.27747400
  8       1.768641  0.42538600
  9       0.914516  0.31414500
 10       0.460895  0.09042200
 11       0.204490  0.00697700
 12       0.074741  0.00115400
 13       0.035671  0.00030300
P  13
  1     125.092775  0.00002500
  2      65.211589  -0.00007000
  3      34.437599  -0.00104200
  4      18.930704  0.00512700
  5      10.873415  0.01840400
  6       6.012172  -0.01469200
  7       3.372205  -0.06130700
  8       1.768641  -0.12863800
  9       0.914516  -0.07063700
 10       0.460895  -0.01631400
 11       0.204490  0.38070200
 12       0.074741  0.52307100
 13       0.035671  0.23576500
P  13
  1     125.092775  -0.00019700
  2      65.211589  0.00125100
  3      34.437599  -0.00915400
  4      18.930704  0.03820100
  5      10.873415  0.04309700
  6       6.012172  -0.02947500
  7       3.372205  -0.42699600
  8       1.768641  -0.39484000
  9       0.914516  0.07723000
 10       0.460895  1.11988100
 11       0.204490  -0.06649400
 12       0.074741  -0.72158300
 13       0.035671  -0.00569500
P  13
  1     125.092775  0.00026400
  2      65.211589  -0.00107600
  3      34.437599  -0.00259100
  4      18.930704  0.03551900
  5      10.873415  0.11955400
  6       6.012172  -0.20471400
  7       3.372205  -0.76062700
  8       1.768641  -0.26274000
  9       0.914516  1.77903000
 10       0.460895  -0.46274200
 11       0.204490  -1.24103000
 12       0.074741  0.94098700
 13       0.035671  0.08349600
P  13
  1     125.092775  -0.00008400
  2      65.211589  0.00076800
  3      34.437599  -0.00948500
  4      18.930704  0.08806200
  5      10.873415  0.15619100
  6       6.012172  -0.61916600
  7       3.372205  -1.38553400
  8       1.768641  2.49212500
  9       0.914516  0.00807600
 10       0.460895  -2.49951500
 11       0.204490  2.26557600
 12       0.074741  -0.74834200
 13       0.035671  -0.21159800
P  1
  1       0.035671  1.00000000
D  11
  1     152.736742  0.00002900
  2      50.772485  0.00523800
  3      26.253589  0.02932500
  4      12.137022  0.07490100
  5       5.853719  0.16341100
  6       2.856224  0.25105700
  7       1.386132  0.28760300
  8       0.670802  0.25186200
  9       0.330280  0.18673600
 10       0.170907  0.09357000
 11       0.086794  0.07381100
D  11
  1     152.736742  -0.00002600
  2      50.772485  -0.00632900
  3      26.253589  -0.03439800
  4      12.137022  -0.09176500
  5       5.853719  -0.20159200
  6       2.856224  -0.28393000
  7       1.386132  -0.16198100
  8       0.670802  0.12882200
  9       0.330280  0.36016000
 10       0.170907  0.27759200
 11       0.086794  0.26140300
D  11
  1     152.736742  0.00005100
  2      50.772485  0.00876900
  3      26.253589  0.04792100
  4      12.137022  0.13247500
  5       5.853719  0.29727900
  6       2.856224  0.27501800
  7       1.386132  -0.22284200
  8       0.670802  -0.61906700
  9       0.330280  -0.07629000
 10       0.170907  0.25605600
 11       0.086794  0.54148200
D  11
  1     152.736742  -0.00009600
  2      50.772485  -0.01214400
  3      26.253589  -0.06697100
  4      12.137022  -0.19602500
  5       5.853719  -0.46900300
  6       2.856224  0.04656000
  7       1.386132  0.98594000
  8       0.670802  -0.22043500
  9       0.330280  -0.75248200
 10       0.170907  -0.11112300
 11       0.086794  0.75310000
D  1
  1       0.086794  1.00000000
F  1
  1       0.486122  1.00000000
F  1
  1       1.630591  1.00000000
F  1
  1       5.469463  1.00000000
G  1
  1       1.093014  1.00000000
G  1
  1       3.889759  1.00000000
S  1
  1       1.937918  1.00000000
S  1
  1       3.396351  1.00000000
P  1
  1       2.405611  1.00000000
P  1
  1       7.650382  1.00000000
D  1
  1       3.700729  1.00000000
D  1
  1       4.277366  1.00000000
F  1
  1       3.362783  1.00000000
G  1
  1       6.451713  1.00000000

 $END

 $ECP
Fe-ccECP GEN 10 2
4
16.0 1 23.2209171361
371.534674178 3 23.5471467972
-181.226034452 2 23.4725634461
-2.3730523614 2 9.85238815041
2
277.500325475 2 22.2106269743
46.2049558527 2 9.51515800919
2
194.998750566 2 24.5700087185
31.6794513291 2 8.86648776669
 $END

 $VEC   
 1  1 1.00232953E+00 8.39839396E-03 4.56562975E-03 4.31876176E-03 1.17209526E-05
 1  2-2.73253050E-03 0.00000000E+00 0.00000000E+00 0.00000000E+00 0.00000000E+00
 1  3 0.00000000E+00 0.00000000E+00 0.00000000E+00 0.00000000E+00 0.00000000E+00
 1  4 0.00000000E+00 0.00000000E+00 0.00000000E+00 0.00000000E+00 0.00000000E+00
 1  5 0.00000000E+00 0.00000000E+00 0.00000000E+00 0.00000000E+00 0.00000000E+00
 1  6 0.00000000E+00 0.00000000E+00 0.00000000E+00 0.00000000E+00 0.00000000E+00
 1  7 2.19692175E-11 2.78368339E-11-4.98060514E-11 0.00000000E+00 0.00000000E+00
 1  8 0.00000000E+00 0.00000000E+00 1.21048991E-11-2.08266653E-11 0.00000000E+00
 1  9 0.00000000E+00 0.00000000E+00 0.00000000E+00 1.36745215E-11-2.36033035E-11
 1 10 0.00000000E+00 0.00000000E+00 0.00000000E+00-2.36548051E-11-3.01921849E-11
 1 11 5.38469899E-11 0.00000000E+00 0.00000000E+00 0.00000000E+00 0.00000000E+00
 1 12 0.00000000E+00 0.00000000E+00 0.00000000E+00 0.00000000E+00 0.00000000E+00
 1 13 0.00000000E+00 0.00000000E+00 0.00000000E+00 0.00000000E+00 0.00000000E+00
 1 14 0.00000000E+00 0.00000000E+00 0.00000000E+00 0.00000000E+00 0.00000000E+00
 1 15 0.00000000E+00 0.00000000E+00 0.00000000E+00 0.00000000E+00 0.00000000E+00
 1 16 0.00000000E+00 0.00000000E+00 0.00000000E+00 0.00000000E+00 0.00000000E+00
 1 17 0.00000000E+00 0.00000000E+00 0.00000000E+00 0.00000000E+00 9.50688411E-04
 1 18 9.50688411E-04 9.50688413E-04 0.00000000E+00 0.00000000E+00 0.00000000E+00
 1 19 0.00000000E+00 0.00000000E+00 0.00000000E+00-8.34999199E-04-8.34999202E-04
 1 20-8.34999202E-04 0.00000000E+00 0.00000000E+00 0.00000000E+00 2.00073043E-04
 1 21 2.00073043E-04 2.00073035E-04 0.00000000E+00 0.00000000E+00 0.00000000E+00
 1 22 0.00000000E+00 0.00000000E+00 0.00000000E+00-1.75726175E-04-1.75726160E-04
 1 23-1.75726160E-04 0.00000000E+00 0.00000000E+00 0.00000000E+00-4.46106129E-03
 1 24 3.05794508E-03 0.00000000E+00 0.00000000E+00 0.00000000E+00 0.00000000E+00
 1 25 0.00000000E+00 0.00000000E+00-3.75636980E-11-5.36130952E-11 9.11767932E-11
 1 26 0.00000000E+00 0.00000000E+00 0.00000000E+00 4.70280079E-11 6.13683412E-11
 1 27-1.08396349E-10 0.00000000E+00 0.00000000E+00 0.00000000E+00 0.00000000E+00
 1 28 0.00000000E+00 0.00000000E+00 0.00000000E+00 0.00000000E+00 0.00000000E+00
 1 29 0.00000000E+00 0.00000000E+00 0.00000000E+00 0.00000000E+00 1.55918741E-04
 1 30 1.55918741E-04 1.55918744E-04 0.00000000E+00 0.00000000E+00 0.00000000E+00
 1 31 0.00000000E+00 0.00000000E+00 0.00000000E+00-1.36944998E-04-1.36945002E-04
 1 32-1.36945002E-04 0.00000000E+00 0.00000000E+00 0.00000000E+00
 2  1 0.00000000E+00 0.00000000E+00 0.00000000E+00 0.00000000E+00 0.00000000E+00
 2  2 0.00000000E+00 0.00000000E+00 0.00000000E+00 1.00054983E+00 0.00000000E+00
 2  3 0.00000000E+00 2.74102934E-02 0.00000000E+00 0.00000000E+00 2.24009313E-02
 2  4 0.00000000E+00 0.00000000E+00 4.56094629E-04 0.00000000E+00 0.00000000E+00
 2  5-1.51948205E-03 0.00000000E+00 0.00000000E+00-7.13162923E-03 0.00000000E+00
 2  6 0.00000000E+00 0.00000000E+00 0.00000000E+00 0.00000000E+00 0.00000000E+00
 2  7 0.00000000E+00 0.00000000E+00 0.00000000E+00 0.00000000E+00 0.00000000E+00
 2  8 0.00000000E+00 0.00000000E+00 0.00000000E+00 0.00000000E+00 0.00000000E+00
 2  9 0.00000000E+00 0.00000000E+00 0.00000000E+00 0.00000000E+00 0.00000000E+00
 2 10 0.00000000E+00 0.00000000E+00 0.00000000E+00 0.00000000E+00 0.00000000E+00
 2 11 0.00000000E+00 0.00000000E+00 0.00000000E+00 0.00000000E+00 0.00000000E+00
 2 12 0.00000000E+00 3.51222093E-03 0.00000000E+00-2.35606943E-03 0.00000000E+00
 2 13-2.35606943E-03 0.00000000E+00 0.00000000E+00 0.00000000E+00 0.00000000E+00
 2 14 0.00000000E+00 4.43845142E-03 0.00000000E+00-2.97740373E-03 0.00000000E+00
 2 15-2.97740373E-03 0.00000000E+00 0.00000000E+00 0.00000000E+00 0.00000000E+00
 2 16 0.00000000E+00 1.89459448E-03 0.00000000E+00-1.27093262E-03 0.00000000E+00
 2 17-1.27093262E-03 0.00000000E+00 0.00000000E+00 0.00000000E+00 0.00000000E+00
 2 18 0.00000000E+00 0.00000000E+00 0.00000000E+00 0.00000000E+00 0.00000000E+00
 2 19 0.00000000E+00 0.00000000E+00 0.00000000E+00 0.00000000E+00 0.00000000E+00
 2 20 0.00000000E+00 0.00000000E+00 0.00000000E+00 0.00000000E+00 0.00000000E+00
 2 21 0.00000000E+00 0.00000000E+00 0.00000000E+00 0.00000000E+00 0.00000000E+00
 2 22 0.00000000E+00 0.00000000E+00 0.00000000E+00 0.00000000E+00 0.00000000E+00
 2 23 0.00000000E+00 0.00000000E+00 0.00000000E+00 0.00000000E+00 0.00000000E+00
 2 24 0.00000000E+00 0.00000000E+00 0.00000000E+00-6.27601906E-05 0.00000000E+00
 2 25 0.00000000E+00 2.54165922E-06 0.00000000E+00 0.00000000E+00 0.00000000E+00
 2 26 0.00000000E+00 0.00000000E+00 0.00000000E+00 0.00000000E+00 0.00000000E+00
 2 27 0.00000000E+00 0.00000000E+00 0.00000000E+00 0.00000000E+00 0.00000000E+00
 2 28 0.00000000E+00-1.30455531E-05 0.00000000E+00 8.75122307E-06 0.00000000E+00
 2 29 8.75122307E-06 0.00000000E+00 0.00000000E+00 0.00000000E+00 0.00000000E+00
 2 30 0.00000000E+00 0.00000000E+00 0.00000000E+00 0.00000000E+00 0.00000000E+00
 2 31 0.00000000E+00 0.00000000E+00 0.00000000E+00 0.00000000E+00 0.00000000E+00
 2 32 0.00000000E+00 0.00000000E+00 0.00000000E+00 0.00000000E+00
 3  1 0.00000000E+00 0.00000000E+00 0.00000000E+00 0.00000000E+00 0.00000000E+00
 3  2 0.00000000E+00 1.00054983E+00 0.00000000E+00 0.00000000E+00 2.74102934E-02
 3  3 0.00000000E+00 0.00000000E+00 2.24009313E-02 0.00000000E+00 0.00000000E+00
 3  4 4.56094629E-04 0.00000000E+00 0.00000000E+00-1.51948205E-03 0.00000000E+00
 3  5 0.00000000E+00-7.13162923E-03 0.00000000E+00 0.00000000E+00 0.00000000E+00
 3  6 0.00000000E+00 0.00000000E+00 0.00000000E+00 0.00000000E+00 0.00000000E+00
 3  7 0.00000000E+00 0.00000000E+00 0.00000000E+00 0.00000000E+00 0.00000000E+00
 3  8 0.00000000E+00 0.00000000E+00 0.00000000E+00 0.00000000E+00 0.00000000E+00
 3  9 0.00000000E+00 0.00000000E+00 0.00000000E+00 0.00000000E+00 0.00000000E+00
 3 10 0.00000000E+00 0.00000000E+00 0.00000000E+00 0.00000000E+00 0.00000000E+00
 3 11 0.00000000E+00 0.00000000E+00 0.00000000E+00 0.00000000E+00 3.51222093E-03
 3 12 0.00000000E+00 0.00000000E+00 0.00000000E+00 0.00000000E+00-2.35606943E-03
 3 13 0.00000000E+00-2.35606943E-03 0.00000000E+00 0.00000000E+00 4.43845142E-03
 3 14 0.00000000E+00 0.00000000E+00 0.00000000E+00 0.00000000E+00-2.97740373E-03
 3 15 0.00000000E+00-2.97740373E-03 0.00000000E+00 0.00000000E+00 1.89459448E-03
 3 16 0.00000000E+00 0.00000000E+00 0.00000000E+00 0.00000000E+00-1.27093261E-03
 3 17 0.00000000E+00-1.27093262E-03 0.00000000E+00 0.00000000E+00 0.00000000E+00
 3 18 0.00000000E+00 0.00000000E+00 0.00000000E+00 0.00000000E+00 0.00000000E+00
 3 19 0.00000000E+00 0.00000000E+00 0.00000000E+00 0.00000000E+00 0.00000000E+00
 3 20 0.00000000E+00 0.00000000E+00 0.00000000E+00 0.00000000E+00 0.00000000E+00
 3 21 0.00000000E+00 0.00000000E+00 0.00000000E+00 0.00000000E+00 0.00000000E+00
 3 22 0.00000000E+00 0.00000000E+00 0.00000000E+00 0.00000000E+00 0.00000000E+00
 3 23 0.00000000E+00 0.00000000E+00 0.00000000E+00 0.00000000E+00 0.00000000E+00
 3 24 0.00000000E+00-6.27601906E-05 0.00000000E+00 0.00000000E+00 2.54165925E-06
 3 25 0.00000000E+00 0.00000000E+00 0.00000000E+00 0.00000000E+00 0.00000000E+00
 3 26 0.00000000E+00 0.00000000E+00 0.00000000E+00 0.00000000E+00 0.00000000E+00
 3 27 0.00000000E+00 0.00000000E+00 0.00000000E+00 0.00000000E+00-1.30455531E-05
 3 28 0.00000000E+00 0.00000000E+00 0.00000000E+00 0.00000000E+00 8.75121879E-06
 3 29 0.00000000E+00 8.75122737E-06 0.00000000E+00 0.00000000E+00 0.00000000E+00
 3 30 0.00000000E+00 0.00000000E+00 0.00000000E+00 0.00000000E+00 0.00000000E+00
 3 31 0.00000000E+00 0.00000000E+00 0.00000000E+00 0.00000000E+00 0.00000000E+00
 3 32 0.00000000E+00 0.00000000E+00 0.00000000E+00 0.00000000E+00
 4  1 0.00000000E+00 0.00000000E+00 0.00000000E+00 0.00000000E+00 0.00000000E+00
 4  2 0.00000000E+00 0.00000000E+00 1.00054983E+00 0.00000000E+00 0.00000000E+00
 4  3 2.74102934E-02 0.00000000E+00 0.00000000E+00 2.24009313E-02 0.00000000E+00
 4  4 0.00000000E+00 4.56094629E-04 0.00000000E+00 0.00000000E+00-1.51948205E-03
 4  5 0.00000000E+00 0.00000000E+00-7.13162923E-03 0.00000000E+00 0.00000000E+00
 4  6 0.00000000E+00 0.00000000E+00 0.00000000E+00 0.00000000E+00 0.00000000E+00
 4  7 0.00000000E+00 0.00000000E+00 0.00000000E+00 0.00000000E+00 0.00000000E+00
 4  8 0.00000000E+00 0.00000000E+00 0.00000000E+00 0.00000000E+00 0.00000000E+00
 4  9 0.00000000E+00 0.00000000E+00 0.00000000E+00 0.00000000E+00 0.00000000E+00
 4 10 0.00000000E+00 0.00000000E+00 0.00000000E+00 0.00000000E+00 0.00000000E+00
 4 11 0.00000000E+00 0.00000000E+00 0.00000000E+00 0.00000000E+00 0.00000000E+00
 4 12 3.51222093E-03 0.00000000E+00-2.35606943E-03 0.00000000E+00 0.00000000E+00
 4 13 0.00000000E+00 0.00000000E+00-2.35606943E-03 0.00000000E+00 0.00000000E+00
 4 14 4.43845142E-03 0.00000000E+00-2.97740373E-03 0.00000000E+00 0.00000000E+00
 4 15 0.00000000E+00 0.00000000E+00-2.97740373E-03 0.00000000E+00 0.00000000E+00
 4 16 1.89459448E-03 0.00000000E+00-1.27093261E-03 0.00000000E+00 0.00000000E+00
 4 17 0.00000000E+00 0.00000000E+00-1.27093262E-03 0.00000000E+00 0.00000000E+00
 4 18 0.00000000E+00 0.00000000E+00 0.00000000E+00 0.00000000E+00 0.00000000E+00
 4 19 0.00000000E+00 0.00000000E+00 0.00000000E+00 0.00000000E+00 0.00000000E+00
 4 20 0.00000000E+00 0.00000000E+00 0.00000000E+00 0.00000000E+00 0.00000000E+00
 4 21 0.00000000E+00 0.00000000E+00 0.00000000E+00 0.00000000E+00 0.00000000E+00
 4 22 0.00000000E+00 0.00000000E+00 0.00000000E+00 0.00000000E+00 0.00000000E+00
 4 23 0.00000000E+00 0.00000000E+00 0.00000000E+00 0.00000000E+00 0.00000000E+00
 4 24 0.00000000E+00 0.00000000E+00-6.27601902E-05 0.00000000E+00 0.00000000E+00
 4 25 2.54165918E-06 0.00000000E+00 0.00000000E+00 0.00000000E+00 0.00000000E+00
 4 26 0.00000000E+00 0.00000000E+00 0.00000000E+00 0.00000000E+00 0.00000000E+00
 4 27 0.00000000E+00 0.00000000E+00 0.00000000E+00 0.00000000E+00 0.00000000E+00
 4 28-1.30455531E-05 0.00000000E+00 8.75121838E-06 0.00000000E+00 0.00000000E+00
 4 29 0.00000000E+00 0.00000000E+00 8.75122774E-06 0.00000000E+00 0.00000000E+00
 4 30 0.00000000E+00 0.00000000E+00 0.00000000E+00 0.00000000E+00 0.00000000E+00
 4 31 0.00000000E+00 0.00000000E+00 0.00000000E+00 0.00000000E+00 0.00000000E+00
 4 32 0.00000000E+00 0.00000000E+00 0.00000000E+00 0.00000000E+00
 5  1 0.00000000E+00-3.93601659E-11 1.14556756E-11 0.00000000E+00 0.00000000E+00
 5  2 5.04577323E-11 0.00000000E+00 0.00000000E+00 0.00000000E+00 0.00000000E+00
 5  3 0.00000000E+00 0.00000000E+00 0.00000000E+00 0.00000000E+00 0.00000000E+00
 5  4 0.00000000E+00 0.00000000E+00 0.00000000E+00 0.00000000E+00 0.00000000E+00
 5  5 0.00000000E+00 0.00000000E+00 0.00000000E+00 0.00000000E+00 8.71567737E-01
 5  6-8.71567737E-01 0.00000000E+00 0.00000000E+00 0.00000000E+00 0.00000000E+00
 5  7 2.01645072E-03-2.01645072E-03 0.00000000E+00 0.00000000E+00 0.00000000E+00
 5  8 0.00000000E+00-2.40003885E-04 2.40003885E-04 0.00000000E+00 0.00000000E+00
 5  9 0.00000000E+00 0.00000000E+00-3.82828754E-04 3.82828754E-04 0.00000000E+00
 5 10 0.00000000E+00 0.00000000E+00 0.00000000E+00-1.70358664E-02 1.70358664E-02
 5 11 0.00000000E+00 0.00000000E+00 0.00000000E+00 0.00000000E+00 0.00000000E+00
 5 12 0.00000000E+00 0.00000000E+00 0.00000000E+00 0.00000000E+00 0.00000000E+00
 5 13 0.00000000E+00 0.00000000E+00 0.00000000E+00 0.00000000E+00 0.00000000E+00
 5 14 0.00000000E+00 0.00000000E+00 0.00000000E+00 0.00000000E+00 0.00000000E+00
 5 15 0.00000000E+00 0.00000000E+00 0.00000000E+00 0.00000000E+00 0.00000000E+00
 5 16 0.00000000E+00 0.00000000E+00 0.00000000E+00 0.00000000E+00 0.00000000E+00
 5 17 0.00000000E+00 0.00000000E+00 0.00000000E+00 0.00000000E+00 4.21544055E-04
 5 18-4.21544058E-04 0.00000000E+00 0.00000000E+00 0.00000000E+00 0.00000000E+00
 5 19 0.00000000E+00 0.00000000E+00 0.00000000E+00 0.00000000E+00-7.40492775E-04
 5 20 7.40492778E-04 0.00000000E+00 0.00000000E+00 0.00000000E+00 8.27792567E-05
 5 21-8.27792486E-05 0.00000000E+00 0.00000000E+00 0.00000000E+00 0.00000000E+00
 5 22 0.00000000E+00 0.00000000E+00 0.00000000E+00 0.00000000E+00-1.45411705E-04
 5 23 1.45411698E-04 0.00000000E+00 0.00000000E+00 0.00000000E+00 0.00000000E+00
 5 24 0.00000000E+00 0.00000000E+00 0.00000000E+00 0.00000000E+00 0.00000000E+00
 5 25 0.00000000E+00 0.00000000E+00-9.25440423E-04 9.25440423E-04 0.00000000E+00
 5 26 0.00000000E+00 0.00000000E+00 0.00000000E+00 5.61423206E-04-5.61423206E-04
 5 27 0.00000000E+00 0.00000000E+00 0.00000000E+00 0.00000000E+00 0.00000000E+00
 5 28 0.00000000E+00 0.00000000E+00 0.00000000E+00 0.00000000E+00 0.00000000E+00
 5 29 0.00000000E+00 0.00000000E+00 0.00000000E+00 0.00000000E+00 4.52599497E-05
 5 30-4.52599522E-05 0.00000000E+00 0.00000000E+00 0.00000000E+00 0.00000000E+00
 5 31 0.00000000E+00 0.00000000E+00 0.00000000E+00 0.00000000E+00-7.95045399E-05
 5 32 7.95045421E-05 0.00000000E+00 0.00000000E+00 0.00000000E+00
 6  1 0.00000000E+00-2.05906095E-11 1.00922143E-11 0.00000000E+00 0.00000000E+00
 6  2 0.00000000E+00 0.00000000E+00 0.00000000E+00 0.00000000E+00 0.00000000E+00
 6  3 0.00000000E+00 0.00000000E+00 0.00000000E+00 0.00000000E+00 0.00000000E+00
 6  4 0.00000000E+00 0.00000000E+00 0.00000000E+00 0.00000000E+00 0.00000000E+00
 6  5 0.00000000E+00 0.00000000E+00 0.00000000E+00 0.00000000E+00-5.03199868E-01
 6  6-5.03199868E-01 1.00639974E+00 0.00000000E+00 0.00000000E+00 0.00000000E+00
 6  7-1.16419837E-03-1.16419837E-03 2.32839673E-03 0.00000000E+00 0.00000000E+00
 6  8 0.00000000E+00 1.38566307E-04 1.38566307E-04-2.77132614E-04 0.00000000E+00
 6  9 0.00000000E+00 0.00000000E+00 2.21026284E-04 2.21026284E-04-4.42052568E-04
 6 10 0.00000000E+00 0.00000000E+00 0.00000000E+00 9.83566207E-03 9.83566207E-03
 6 11-1.96713241E-02 0.00000000E+00 0.00000000E+00 0.00000000E+00 0.00000000E+00
 6 12 0.00000000E+00 0.00000000E+00 0.00000000E+00 0.00000000E+00 0.00000000E+00
 6 13 0.00000000E+00 0.00000000E+00 0.00000000E+00 0.00000000E+00 0.00000000E+00
 6 14 0.00000000E+00 0.00000000E+00 0.00000000E+00 0.00000000E+00 0.00000000E+00
 6 15 0.00000000E+00 0.00000000E+00 0.00000000E+00 0.00000000E+00 0.00000000E+00
 6 16 0.00000000E+00 0.00000000E+00 0.00000000E+00 0.00000000E+00 0.00000000E+00
 6 17 0.00000000E+00 0.00000000E+00 0.00000000E+00 0.00000000E+00-2.43378572E-04
 6 18-2.43378572E-04 4.86757152E-04 0.00000000E+00 0.00000000E+00 0.00000000E+00
 6 19 0.00000000E+00 0.00000000E+00 0.00000000E+00 8.55047405E-04-4.27523707E-04
 6 20-4.27523707E-04 0.00000000E+00 0.00000000E+00 0.00000000E+00-4.77926385E-05
 6 21-4.77926385E-05 9.55852329E-05 0.00000000E+00 0.00000000E+00 0.00000000E+00
 6 22 0.00000000E+00 0.00000000E+00 0.00000000E+00 1.67906983E-04-8.39534722E-05
 6 23-8.39534722E-05 0.00000000E+00 0.00000000E+00 0.00000000E+00-2.05435776E-11
 6 24 1.34926140E-11 0.00000000E+00 0.00000000E+00 0.00000000E+00 0.00000000E+00
 6 25 0.00000000E+00 0.00000000E+00 5.34303278E-04 5.34303278E-04-1.06860656E-03
 6 26 0.00000000E+00 0.00000000E+00 0.00000000E+00-3.24137840E-04-3.24137840E-04
 6 27 6.48275679E-04 0.00000000E+00 0.00000000E+00 0.00000000E+00 0.00000000E+00
 6 28 0.00000000E+00 0.00000000E+00 0.00000000E+00 0.00000000E+00 0.00000000E+00
 6 29 0.00000000E+00 0.00000000E+00 0.00000000E+00 0.00000000E+00-2.61308335E-05
 6 30-2.61308335E-05 5.22617011E-05 0.00000000E+00 0.00000000E+00 0.00000000E+00
 6 31 0.00000000E+00 0.00000000E+00 0.00000000E+00 9.18039263E-05-4.59019781E-05
 6 32-4.59019781E-05 0.00000000E+00 0.00000000E+00 0.00000000E+00
 7  1-1.14614155E-02 9.68595723E-01-6.62514082E-02 1.19465656E-02 9.66986487E-04
 7  2 3.52476207E-02 0.00000000E+00 0.00000000E+00 0.00000000E+00 0.00000000E+00
 7  3 0.00000000E+00 0.00000000E+00 0.00000000E+00 0.00000000E+00 0.00000000E+00
 7  4 0.00000000E+00 0.00000000E+00 0.00000000E+00 0.00000000E+00 0.00000000E+00
 7  5 0.00000000E+00 0.00000000E+00 0.00000000E+00 0.00000000E+00 0.00000000E+00
 7  6 0.00000000E+00 1.08469380E-11 0.00000000E+00 0.00000000E+00 0.00000000E+00
 7  7 0.00000000E+00 0.00000000E+00 0.00000000E+00 0.00000000E+00 0.00000000E+00
 7  8 0.00000000E+00 0.00000000E+00 0.00000000E+00 0.00000000E+00 0.00000000E+00
 7  9 0.00000000E+00 0.00000000E+00 0.00000000E+00 0.00000000E+00 0.00000000E+00
 7 10 0.00000000E+00 0.00000000E+00 0.00000000E+00 0.00000000E+00 0.00000000E+00
 7 11 1.38403133E-11 0.00000000E+00 0.00000000E+00 0.00000000E+00 0.00000000E+00
 7 12 0.00000000E+00 0.00000000E+00 0.00000000E+00 0.00000000E+00 0.00000000E+00
 7 13 0.00000000E+00 0.00000000E+00 0.00000000E+00 0.00000000E+00 0.00000000E+00
 7 14 0.00000000E+00 0.00000000E+00 0.00000000E+00 0.00000000E+00 0.00000000E+00
 7 15 0.00000000E+00 0.00000000E+00 0.00000000E+00 0.00000000E+00 0.00000000E+00
 7 16 0.00000000E+00 0.00000000E+00 0.00000000E+00 0.00000000E+00 0.00000000E+00
 7 17 0.00000000E+00 0.00000000E+00 0.00000000E+00 0.00000000E+00-1.00173725E-03
 7 18-1.00173725E-03-1.00173725E-03 0.00000000E+00 0.00000000E+00 0.00000000E+00
 7 19 0.00000000E+00 0.00000000E+00 0.00000000E+00 8.79835911E-04 8.79835912E-04
 7 20 8.79835912E-04 0.00000000E+00 0.00000000E+00 0.00000000E+00 3.64642105E-04
 7 21 3.64642105E-04 3.64642106E-04 0.00000000E+00 0.00000000E+00 0.00000000E+00
 7 22 0.00000000E+00 0.00000000E+00 0.00000000E+00-3.20268830E-04-3.20268832E-04
 7 23-3.20268832E-04 0.00000000E+00 0.00000000E+00 0.00000000E+00-1.14506433E-03
 7 24-1.76938414E-04 0.00000000E+00 0.00000000E+00 0.00000000E+00 0.00000000E+00
 7 25 0.00000000E+00 0.00000000E+00 0.00000000E+00 1.17612386E-11-1.25494222E-11
 7 26 0.00000000E+00 0.00000000E+00 0.00000000E+00 0.00000000E+00-1.11199263E-11
 7 27 1.31629226E-11 0.00000000E+00 0.00000000E+00 0.00000000E+00 0.00000000E+00
 7 28 0.00000000E+00 0.00000000E+00 0.00000000E+00 0.00000000E+00 0.00000000E+00
 7 29 0.00000000E+00 0.00000000E+00 0.00000000E+00 0.00000000E+00-2.31658869E-05
 7 30-2.31658869E-05-2.31658871E-05 0.00000000E+00 0.00000000E+00 0.00000000E+00
 7 31 0.00000000E+00 0.00000000E+00 0.00000000E+00 2.03468313E-05 2.03468319E-05
 7 32 2.03468319E-05 0.00000000E+00 0.00000000E+00 0.00000000E+00
 8  1 0.00000000E+00 0.00000000E+00 0.00000000E+00 0.00000000E+00 0.00000000E+00
 8  2 0.00000000E+00 0.00000000E+00 0.00000000E+00 0.00000000E+00 0.00000000E+00
 8  3 0.00000000E+00 0.00000000E+00 0.00000000E+00 0.00000000E+00 0.00000000E+00
 8  4 0.00000000E+00 0.00000000E+00 0.00000000E+00 0.00000000E+00 0.00000000E+00
 8  5 0.00000000E+00 0.00000000E+00 0.00000000E+00 0.00000000E+00 0.00000000E+00
 8  6 0.00000000E+00 0.00000000E+00 1.00732110E+00 0.00000000E+00 0.00000000E+00
 8  7 0.00000000E+00 0.00000000E+00 0.00000000E+00-3.12558755E-02 0.00000000E+00
 8  8 0.00000000E+00 0.00000000E+00 0.00000000E+00 0.00000000E+00-1.01217312E-02
 8  9 0.00000000E+00 0.00000000E+00 0.00000000E+00 0.00000000E+00 0.00000000E+00
 8 10-2.65724497E-04 0.00000000E+00 0.00000000E+00 0.00000000E+00 0.00000000E+00
 8 11 0.00000000E+00-2.46208811E-02 0.00000000E+00 0.00000000E+00 0.00000000E+00
 8 12 0.00000000E+00 0.00000000E+00 0.00000000E+00 0.00000000E+00 0.00000000E+00
 8 13 0.00000000E+00 0.00000000E+00 0.00000000E+00 0.00000000E+00 0.00000000E+00
 8 14 0.00000000E+00 0.00000000E+00 0.00000000E+00 0.00000000E+00 0.00000000E+00
 8 15 0.00000000E+00 0.00000000E+00 0.00000000E+00 0.00000000E+00 0.00000000E+00
 8 16 0.00000000E+00 0.00000000E+00 0.00000000E+00 0.00000000E+00 0.00000000E+00
 8 17 0.00000000E+00 0.00000000E+00 0.00000000E+00 0.00000000E+00 0.00000000E+00
 8 18 0.00000000E+00 0.00000000E+00-4.92303084E-04 0.00000000E+00-4.92303084E-04
 8 19 0.00000000E+00 0.00000000E+00 0.00000000E+00 0.00000000E+00 0.00000000E+00
 8 20 0.00000000E+00 0.00000000E+00 0.00000000E+00 1.32098779E-03 0.00000000E+00
 8 21 0.00000000E+00 0.00000000E+00-2.35726771E-04 0.00000000E+00-2.35726771E-04
 8 22 0.00000000E+00 0.00000000E+00 0.00000000E+00 0.00000000E+00 0.00000000E+00
 8 23 0.00000000E+00 0.00000000E+00 0.00000000E+00 6.32521300E-04 0.00000000E+00
 8 24 0.00000000E+00 0.00000000E+00 0.00000000E+00 0.00000000E+00 0.00000000E+00
 8 25 0.00000000E+00 0.00000000E+00 0.00000000E+00 0.00000000E+00 0.00000000E+00
 8 26-8.37869927E-05 0.00000000E+00 0.00000000E+00 0.00000000E+00 0.00000000E+00
 8 27 0.00000000E+00 5.69383313E-04 0.00000000E+00 0.00000000E+00 0.00000000E+00
 8 28 0.00000000E+00 0.00000000E+00 0.00000000E+00 0.00000000E+00 0.00000000E+00
 8 29 0.00000000E+00 0.00000000E+00 0.00000000E+00 0.00000000E+00 0.00000000E+00
 8 30 0.00000000E+00 0.00000000E+00-1.65138324E-05 0.00000000E+00-1.65138324E-05
 8 31 0.00000000E+00 0.00000000E+00 0.00000000E+00 0.00000000E+00 0.00000000E+00
 8 32 0.00000000E+00 0.00000000E+00 0.00000000E+00 4.43112621E-05
 9  1 0.00000000E+00 0.00000000E+00 0.00000000E+00 0.00000000E+00 0.00000000E+00
 9  2 0.00000000E+00 0.00000000E+00 0.00000000E+00 0.00000000E+00 0.00000000E+00
 9  3 0.00000000E+00 0.00000000E+00 0.00000000E+00 0.00000000E+00 0.00000000E+00
 9  4 0.00000000E+00 0.00000000E+00 0.00000000E+00 0.00000000E+00 0.00000000E+00
 9  5 0.00000000E+00 0.00000000E+00 0.00000000E+00 0.00000000E+00 0.00000000E+00
 9  6 0.00000000E+00 0.00000000E+00 0.00000000E+00 0.00000000E+00 1.00732110E+00
 9  7 0.00000000E+00 0.00000000E+00 0.00000000E+00 0.00000000E+00 0.00000000E+00
 9  8-3.12558755E-02 0.00000000E+00 0.00000000E+00 0.00000000E+00 0.00000000E+00
 9  9 0.00000000E+00-1.01217312E-02 0.00000000E+00 0.00000000E+00 0.00000000E+00
 9 10 0.00000000E+00 0.00000000E+00-2.65724497E-04 0.00000000E+00 0.00000000E+00
 9 11 0.00000000E+00 0.00000000E+00 0.00000000E+00-2.46208811E-02 0.00000000E+00
 9 12 0.00000000E+00 0.00000000E+00 0.00000000E+00 0.00000000E+00 0.00000000E+00
 9 13 0.00000000E+00 0.00000000E+00 0.00000000E+00 0.00000000E+00 0.00000000E+00
 9 14 0.00000000E+00 0.00000000E+00 0.00000000E+00 0.00000000E+00 0.00000000E+00
 9 15 0.00000000E+00 0.00000000E+00 0.00000000E+00 0.00000000E+00 0.00000000E+00
 9 16 0.00000000E+00 0.00000000E+00 0.00000000E+00 0.00000000E+00 0.00000000E+00
 9 17 0.00000000E+00 0.00000000E+00 0.00000000E+00 0.00000000E+00 0.00000000E+00
 9 18 0.00000000E+00 0.00000000E+00 0.00000000E+00 0.00000000E+00 0.00000000E+00
 9 19-4.92303081E-04 0.00000000E+00-4.92303087E-04 0.00000000E+00 0.00000000E+00
 9 20 0.00000000E+00 1.32098779E-03 0.00000000E+00 0.00000000E+00 0.00000000E+00
 9 21 0.00000000E+00 0.00000000E+00 0.00000000E+00 0.00000000E+00 0.00000000E+00
 9 22-2.35726783E-04 0.00000000E+00-2.35726759E-04 0.00000000E+00 0.00000000E+00
 9 23 0.00000000E+00 6.32521300E-04 0.00000000E+00 0.00000000E+00 0.00000000E+00
 9 24 0.00000000E+00 0.00000000E+00 0.00000000E+00 0.00000000E+00 0.00000000E+00
 9 25 0.00000000E+00 0.00000000E+00 0.00000000E+00 0.00000000E+00 0.00000000E+00
 9 26 0.00000000E+00 0.00000000E+00-8.37869934E-05 0.00000000E+00 0.00000000E+00
 9 27 0.00000000E+00 0.00000000E+00 0.00000000E+00 5.69383313E-04 0.00000000E+00
 9 28 0.00000000E+00 0.00000000E+00 0.00000000E+00 0.00000000E+00 0.00000000E+00
 9 29 0.00000000E+00 0.00000000E+00 0.00000000E+00 0.00000000E+00 0.00000000E+00
 9 30 0.00000000E+00 0.00000000E+00 0.00000000E+00 0.00000000E+00 0.00000000E+00
 9 31-1.65138258E-05 0.00000000E+00-1.65138390E-05 0.00000000E+00 0.00000000E+00