 $CONTRL 
     SCFTYP=ROHF 
     MULT=5
     ICHARG=0 
     RUNTYP=ENERGY
     MAXIT=150
     ECP=READ
     ISPHER=1
 $END

 $SYSTEM 
     KDIAG=3
 $END

 $GUESS
    GUESS=HUCKEL
 $END


 $DATA  

C1
Fe 26 0.0 0.0 0.0
s 13 1.000
1 84.322332 0.000785
2 44.203528 -0.012781
3 23.288963 0.104635
4 13.385163 -0.119385
5 7.518052 -0.339804
6 4.101835 -0.049994
7 2.253571 0.476955
8 1.134924 0.593222
9 0.561550 0.200151
10 0.201961 0.008591
11 0.108698 -0.002188
12 0.053619 0.000677
13 0.025823 -0.000144
s 13 1.000
1 84.322332 -0.000162
2 44.203528 0.002921
3 23.288963 -0.025466
4 13.385163 0.031182
5 7.518052 0.086849
6 4.101835 0.006846
7 2.253571 -0.131856
8 1.134924 -0.227746
9 0.561550 -0.173079
10 0.201961 0.136142
11 0.108698 0.434013
12 0.053619 0.477555
13 0.025823 0.128804
s 13 1.000
1 84.322332 0.000002
2 44.203528 0.004103
3 23.288963 -0.046840
4 13.385163 0.052833
5 7.518052 0.218094
6 4.101835 -0.044999
7 2.253571 -0.287386
8 1.134924 -0.713220
9 0.561550 0.249174
10 0.201961 1.299872
11 0.108698 0.192119
12 0.053619 -0.658616
13 0.025823 -0.521047
s 13 1.000
1 84.322332 0.000012
2 44.203528 0.007598
3 23.288963 -0.094133
4 13.385163 0.127655
5 7.518052 0.435598
6 4.101835 -0.147911
7 2.253571 -1.084477
8 1.134924 -0.887003
9 0.561550 2.449946
10 0.201961 0.167976
11 0.108698 -2.114668
12 0.053619 0.452579
13 0.025823 0.801444
p 13 1.000
1 125.092775 0.000056
2 65.211589 -0.000572
3 34.437599 0.007388
4 18.930704 -0.028481
5 10.873415 -0.063005
6 6.012172 0.024855
7 3.372205 0.277474
8 1.768641 0.425386
9 0.914516 0.314145
10 0.460895 0.090422
11 0.204490 0.006977
12 0.074741 0.001154
13 0.035671 0.000303
p 13 1.000
1 125.092775 0.000025
2 65.211589 -0.000070
3 34.437599 -0.001042
4 18.930704 0.005127
5 10.873415 0.018404
6 6.012172 -0.014692
7 3.372205 -0.061307
8 1.768641 -0.128638
9 0.914516 -0.070637
10 0.460895 -0.016314
11 0.204490 0.380702
12 0.074741 0.523071
13 0.035671 0.235765
p 13 1.000
1 125.092775 -0.000197
2 65.211589 0.001251
3 34.437599 -0.009154
4 18.930704 0.038201
5 10.873415 0.043097
6 6.012172 -0.029475
7 3.372205 -0.426996
8 1.768641 -0.394840
9 0.914516 0.077230
10 0.460895 1.119881
11 0.204490 -0.066494
12 0.074741 -0.721583
13 0.035671 -0.005695
p 13 1.000
1 125.092775 0.000264
2 65.211589 -0.001076
3 34.437599 -0.002591
4 18.930704 0.035519
5 10.873415 0.119554
6 6.012172 -0.204714
7 3.372205 -0.760627
8 1.768641 -0.262740
9 0.914516 1.779030
10 0.460895 -0.462742
11 0.204490 -1.241030
12 0.074741 0.940987
13 0.035671 0.083496
d 11 1.000
1 152.736742 0.000029
2 50.772485 0.005238
3 26.253589 0.029325
4 12.137022 0.074901
5 5.853719 0.163411
6 2.856224 0.251057
7 1.386132 0.287603
8 0.670802 0.251862
9 0.330280 0.186736
10 0.170907 0.093570
11 0.086794 0.073811
d 11 1.000
1 152.736742 -0.000026
2 50.772485 -0.006329
3 26.253589 -0.034398
4 12.137022 -0.091765
5 5.853719 -0.201592
6 2.856224 -0.283930
7 1.386132 -0.161981
8 0.670802 0.128822
9 0.330280 0.360160
10 0.170907 0.277592
11 0.086794 0.261403
d 11 1.000
1 152.736742 0.000051
2 50.772485 0.008769
3 26.253589 0.047921
4 12.137022 0.132475
5 5.853719 0.297279
6 2.856224 0.275018
7 1.386132 -0.222842
8 0.670802 -0.619067
9 0.330280 -0.076290
10 0.170907 0.256056
11 0.086794 0.541482

 $END

 $ECP
Fe-ccECP GEN 10 2
4
16.0 1 23.2209171361
371.534674178 3 23.5471467972
-181.226034452 2 23.4725634461
-2.3730523614 2 9.85238815041
2
277.500325475 2 22.2106269743
46.2049558527 2 9.51515800919
2
194.998750566 2 24.5700087185
31.6794513291 2 8.86648776669
 $END


