%MEM=1GB
%CPU=16
%RWF=/scratch/04843/aannabe/gaussian/
%Int=/scratch/04843/aannabe/gaussian/
%D2E=/scratch/04843/aannabe/gaussian/
%NoSave
%CHK=Fe

!Make sure DKHSO is turned off
#P ROHF/Gen 5d 7f SCF=(maxcycles=300, VShift=100) MaxDisk=100GB Pop=Full GFPRINT Integral=NoBasisTransform Pseudo=Read Guess=Read IOp(5/15=2) 
!#P ROCCSD(T)=(maxcyc=150, Full)/Gen 5d 7f SCF=(maxcycles=300, NoVarAcc, VShift=300) MaxDisk=100GB Pop=Regular Pseudo=Read Guess=Read IOp(5/15=2) 

Fe

0 5
Fe 0.0 0.0 0.0

Fe 0
s 13 1.000
84.322332 0.000785
44.203528 -0.012781
23.288963 0.104635
13.385163 -0.119385
7.518052 -0.339804
4.101835 -0.049994
2.253571 0.476955
1.134924 0.593222
0.561550 0.200151
 0.201961 0.008591
 0.108698 -0.002188
 0.053619 0.000677
 0.025823 -0.000144
s 13 1.000
84.322332 -0.000162
44.203528 0.002921
23.288963 -0.025466
13.385163 0.031182
7.518052 0.086849
4.101835 0.006846
2.253571 -0.131856
1.134924 -0.227746
0.561550 -0.173079
 0.201961 0.136142
 0.108698 0.434013
 0.053619 0.477555
 0.025823 0.128804
s 13 1.000
84.322332 0.000002
44.203528 0.004103
23.288963 -0.046840
13.385163 0.052833
7.518052 0.218094
4.101835 -0.044999
2.253571 -0.287386
1.134924 -0.713220
0.561550 0.249174
 0.201961 1.299872
 0.108698 0.192119
 0.053619 -0.658616
 0.025823 -0.521047
p 13 1.000
125.092775 0.000056
65.211589 -0.000572
34.437599 0.007388
18.930704 -0.028481
10.873415 -0.063005
6.012172 0.024855
3.372205 0.277474
1.768641 0.425386
0.914516 0.314145
 0.460895 0.090422
 0.204490 0.006977
 0.074741 0.001154
 0.035671 0.000303
p 13 1.000
125.092775 0.000025
65.211589 -0.000070
34.437599 -0.001042
18.930704 0.005127
10.873415 0.018404
6.012172 -0.014692
3.372205 -0.061307
1.768641 -0.128638
0.914516 -0.070637
 0.460895 -0.016314
 0.204490 0.380702
 0.074741 0.523071
 0.035671 0.235765
d 11 1.000
152.736742 0.000029
50.772485 0.005238
26.253589 0.029325
12.137022 0.074901
5.853719 0.163411
2.856224 0.251057
1.386132 0.287603
0.670802 0.251862
0.330280 0.186736
 0.170907 0.093570
 0.086794 0.073811
d 11 1.000
152.736742 -0.000026
50.772485 -0.006329
26.253589 -0.034398
12.137022 -0.091765
5.853719 -0.201592
2.856224 -0.283930
1.386132 -0.161981
0.670802 0.128822
0.330280 0.360160
 0.170907 0.277592
 0.086794 0.261403
****

Fe 0
QMC 2 10

4
1 2.32209171361153e+01  16.000
3 2.35471467972070e+01  371.5346741778448
2 2.34725634460779e+01 -1.81226034452083e+02
2 9.85238815041471e+00 -2.37305236140397e+00

2
2 2.22106269743296e+01  2.77500325474967e+02
2 9.51515800919325e+00  4.62049558527338e+01

2
2 2.45700087184633e+01  1.94998750566171e+02
2 8.86648776669055e+00  3.16794513291187e+01

!1-4 7 6 5 8-10


