 $CONTRL 
     SCFTYP=ROHF
     MULT=5
     ICHARG=0
     RUNTYP=ENERGY 
     MAXIT=150 
     PP=READ
 $END

 $CONTRL 
     ISPHER=1 
 $END

 $SYSTEM 
     KDIAG=3
     mwords=125 
 $END

 $GUESS
    GUESS=MOREAD
    NORB=203
    NORDER=1
    IORDER(5)=10,5,6,7,8,9
 $END

 $DATA  
                                                                                
C1
Fe 26 0. 0. 0.
S   1
  1  15095.3300000              1.0000000        
S   1
  1   5888.4380000              1.0000000        
S   1
  1   2442.8760000              1.0000000        
S   1
  1   1065.8570000              1.0000000        
S   1
  1    484.9096000              1.0000000        
S   1
  1    228.4585000              1.0000000        
S   1
  1    110.7453000              1.0000000        
S   1
  1     54.4311600              1.0000000        
S   1
  1     25.0109600              1.0000000        
S   1
  1     12.5926200              1.0000000        
S   1
  1      6.3232020              1.0000000        
S   1
  1      2.8833840              1.0000000        
S   1
  1      1.3828680              1.0000000        
S   1
  1      0.6322010              1.0000000        
S   1
  1      0.1492380              1.0000000        
S   1
  1      0.0684940              1.0000000        
S   1
  1      0.0303810              1.0000000        
S   1
  1      5.7900000              1.0000000        
S   1
  1      1.7335000              1.0000000        
S   1
  1      0.0134800              1.0000000        
P   1
  1    480.3380000              1.0000000        
P   1
  1    220.1368000              1.0000000        
P   1
  1    106.5482000              1.0000000        
P   1
  1     53.7426200              1.0000000        
P   1
  1     27.8631800              1.0000000        
P   1
  1     14.7438200              1.0000000        
P   1
  1      7.8933510              1.0000000        
P   1
  1      4.1794970              1.0000000        
P   1
  1      2.1656690              1.0000000        
P   1
  1      1.0972400              1.0000000        
P   1
  1      0.5360850              1.0000000        
P   1
  1      0.2024530              1.0000000        
P   1
  1      0.0816950              1.0000000        
P   1
  1      0.0326140              1.0000000        
P   1
  1      8.3687000              1.0000000        
P   1
  1      2.2601000              1.0000000        
P   1
  1      0.0130200              1.0000000        
D   1 
  1    103.6670000              1.0000000        
D   1 
  1     39.7043000              1.0000000        
D   1 
  1     17.0310000              1.0000000        
D   1 
  1      7.7890200              1.0000000        
D   1 
  1      3.6995500              1.0000000        
D   1 
  1      1.7553200              1.0000000        
D   1 
  1      0.8128450              1.0000000        
D   1 
  1      0.3614410              1.0000000        
D   1 
  1      0.1513460              1.0000000        
D   1
  1      0.0575130              1.0000000        
D   1
  1      5.4967000              1.0000000        
D   1
  1      2.8925000              1.0000000        
D   1
  1      0.0218600              1.0000000        
F   1
  1      7.7828000              1.0000000        
F   1
  1      3.2584000              1.0000000        
F   1
  1      1.3641000              1.0000000        
F   1
  1      0.4564000              1.0000000        
F   1
  1      0.1527000              1.0000000        
G   1
  1      6.3816000              1.0000000        
G   1
  1      2.7717000              1.0000000        
G   1
  1      1.0505000              1.0000000        
G   1
  1      0.3981500              1.0000000        

 $END

 $ECP
Fe-STU GEN 10 3
1
0.000000    2 1.000000  
2
253.749588  2 20.930000 
37.922845   2 9.445000  
2
161.036812  2 21.760000 
27.651298   2 9.178000  
2
-24.431276  2 25.900000 
-1.434251   2 8.835000  

 $END


 $VEC   
 1  1 1.39994177E-05-8.74171425E-06 1.23175066E-04-1.08724326E-04 8.93208624E-04
 1  2-1.29541889E-03 5.64929527E-03-1.71911319E-02 1.05762829E-01-1.83440001E-01
 1  3-3.29230825E-01 3.72261200E-01 7.84271372E-01 2.87832293E-01 1.34278955E-02
 1  4-5.36362377E-03 3.03836662E-03-4.73356184E-02-1.24198012E-01-8.19190237E-04
 1  5-0.00000000E+00-0.00000000E+00-0.00000000E+00-0.00000000E+00-0.00000000E+00
 1  6-0.00000000E+00-0.00000000E+00-0.00000000E+00-0.00000000E+00-0.00000000E+00
 1  7-0.00000000E+00-0.00000000E+00-0.00000000E+00-0.00000000E+00-0.00000000E+00
 1  8-0.00000000E+00-0.00000000E+00-0.00000000E+00-0.00000000E+00-0.00000000E+00
 1  9-0.00000000E+00-0.00000000E+00-0.00000000E+00-0.00000000E+00-0.00000000E+00
 1 10-0.00000000E+00-0.00000000E+00-0.00000000E+00-0.00000000E+00-0.00000000E+00
 1 11-0.00000000E+00-0.00000000E+00-0.00000000E+00-0.00000000E+00-0.00000000E+00
 1 12-0.00000000E+00-0.00000000E+00-0.00000000E+00-0.00000000E+00-0.00000000E+00
 1 13-0.00000000E+00-0.00000000E+00-0.00000000E+00-0.00000000E+00-0.00000000E+00
 1 14-0.00000000E+00-0.00000000E+00-0.00000000E+00-0.00000000E+00-0.00000000E+00
 1 15-0.00000000E+00 1.38980601E-06 1.38981080E-06-2.77961681E-06-0.00000000E+00
 1 16-0.00000000E+00-0.00000000E+00 5.37868331E-06 5.37868012E-06-1.07573634E-05
 1 17-0.00000000E+00-0.00000000E+00-0.00000000E+00 4.76332610E-05 4.76332619E-05
 1 18-9.52665229E-05-0.00000000E+00-0.00000000E+00-0.00000000E+00 1.48816272E-04
 1 19 1.48816324E-04-2.97632597E-04-0.00000000E+00-0.00000000E+00-0.00000000E+00
 1 20-2.41855771E-04-2.41855470E-04 4.83711241E-04-0.00000000E+00-0.00000000E+00
 1 21-0.00000000E+00-3.71641716E-04-3.71641674E-04 7.43283391E-04-0.00000000E+00
 1 22-0.00000000E+00-0.00000000E+00 8.36680851E-04 8.36680834E-04-1.67336169E-03
 1 23-0.00000000E+00-0.00000000E+00-0.00000000E+00 8.59744566E-04 8.59744570E-04
 1 24-1.71948914E-03-0.00000000E+00-0.00000000E+00-0.00000000E+00 1.64362024E-04
 1 25 1.64362006E-04-3.28724029E-04-0.00000000E+00-0.00000000E+00-0.00000000E+00
 1 26 1.31499158E-06 1.31500279E-06-2.62999437E-06-0.00000000E+00-0.00000000E+00
 1 27-0.00000000E+00-1.51922627E-05-1.51924395E-05 3.03847022E-05-0.00000000E+00
 1 28-0.00000000E+00-0.00000000E+00-7.78227625E-05-7.78229863E-05 1.55645749E-04
 1 29-0.00000000E+00-0.00000000E+00-0.00000000E+00-3.46665119E-08-3.46769872E-08
 1 30 6.93434991E-08-0.00000000E+00-0.00000000E+00-0.00000000E+00-0.00000000E+00
 1 31-0.00000000E+00-0.00000000E+00-0.00000000E+00-0.00000000E+00-0.00000000E+00
 1 32-0.00000000E+00-0.00000000E+00-0.00000000E+00-0.00000000E+00-0.00000000E+00
 1 33-0.00000000E+00-0.00000000E+00-0.00000000E+00-0.00000000E+00-0.00000000E+00
 1 34-0.00000000E+00-0.00000000E+00-0.00000000E+00-0.00000000E+00-0.00000000E+00
 1 35-0.00000000E+00-0.00000000E+00-0.00000000E+00-0.00000000E+00-0.00000000E+00
 1 36-0.00000000E+00-0.00000000E+00-0.00000000E+00-0.00000000E+00-0.00000000E+00
 1 37-0.00000000E+00-0.00000000E+00-0.00000000E+00-0.00000000E+00-0.00000000E+00
 1 38-0.00000000E+00-0.00000000E+00-0.00000000E+00-0.00000000E+00-0.00000000E+00
 1 39-0.00000000E+00-0.00000000E+00-0.00000000E+00-0.00000000E+00-0.00000000E+00
 1 40-0.00000000E+00-0.00000000E+00-0.00000000E+00-0.00000000E+00 1.44199960E-04
 1 41 1.44199963E-04 3.01021829E-05-0.00000000E+00-0.00000000E+00-0.00000000E+00
 1 42-0.00000000E+00-0.00000000E+00-0.00000000E+00-2.26865505E-04-2.64390471E-05
 1 43-2.64390533E-05-0.00000000E+00-0.00000000E+00-0.00000000E+00 2.16995793E-04
 1 44 2.16995794E-04 4.35044126E-05-0.00000000E+00-0.00000000E+00-0.00000000E+00
 1 45-0.00000000E+00-0.00000000E+00-0.00000000E+00-3.42968816E-04-3.82103629E-05
 1 46-3.82103641E-05-0.00000000E+00-0.00000000E+00-0.00000000E+00 5.25371876E-04
 1 47 5.25371876E-04 9.77263609E-05-0.00000000E+00-0.00000000E+00-0.00000000E+00
 1 48-0.00000000E+00-0.00000000E+00-0.00000000E+00-8.37044767E-04-8.58340466E-05
 1 49-8.58340464E-05-0.00000000E+00-0.00000000E+00-0.00000000E+00 1.05101663E-04
 1 50 1.05101660E-04 1.39601783E-05-0.00000000E+00-0.00000000E+00-0.00000000E+00
 1 51-0.00000000E+00-0.00000000E+00-0.00000000E+00-1.72362330E-04-1.22613683E-05
 1 52-1.22613620E-05-0.00000000E+00-0.00000000E+00-0.00000000E+00
 2  1 0.00000000E+00 0.00000000E+00 0.00000000E+00 0.00000000E+00 0.00000000E+00
 2  2 0.00000000E+00 0.00000000E+00 0.00000000E+00 0.00000000E+00 0.00000000E+00
 2  3 0.00000000E+00 0.00000000E+00 0.00000000E+00 0.00000000E+00 0.00000000E+00
 2  4 0.00000000E+00 0.00000000E+00 0.00000000E+00 0.00000000E+00 0.00000000E+00
 2  5 6.45159507E-05 0.00000000E+00 0.00000000E+00 2.33590826E-04 0.00000000E+00
 2  6 0.00000000E+00-4.05871498E-05 0.00000000E+00 0.00000000E+00 2.34153978E-03
 2  7 0.00000000E+00 0.00000000E+00 6.99386578E-03 0.00000000E+00 0.00000000E+00
 2  8-6.69669276E-02 0.00000000E+00 0.00000000E+00 1.24657348E-02 0.00000000E+00
 2  9 0.00000000E+00 1.79644545E-01 0.00000000E+00 0.00000000E+00 2.30780473E-01
 2 10 0.00000000E+00 0.00000000E+00 3.88754197E-01 0.00000000E+00 0.00000000E+00
 2 11 1.58451596E-01 0.00000000E+00 0.00000000E+00 1.50116058E-02 0.00000000E+00
 2 12 0.00000000E+00-2.19602972E-03 0.00000000E+00 0.00000000E+00 9.77509820E-04
 2 13 0.00000000E+00 0.00000000E+00-4.89444337E-02 0.00000000E+00 0.00000000E+00
 2 14 1.80520886E-01 0.00000000E+00 0.00000000E+00-2.96328558E-04 0.00000000E+00
 2 15 0.00000000E+00 0.00000000E+00 0.00000000E+00 0.00000000E+00 0.00000000E+00
 2 16 0.00000000E+00 0.00000000E+00 0.00000000E+00 0.00000000E+00 0.00000000E+00
 2 17 0.00000000E+00 0.00000000E+00 0.00000000E+00 0.00000000E+00 0.00000000E+00
 2 18 0.00000000E+00 0.00000000E+00 0.00000000E+00 0.00000000E+00 0.00000000E+00
 2 19 0.00000000E+00 0.00000000E+00 0.00000000E+00 0.00000000E+00 0.00000000E+00
 2 20 0.00000000E+00 0.00000000E+00 0.00000000E+00 0.00000000E+00 0.00000000E+00
 2 21 0.00000000E+00 0.00000000E+00 0.00000000E+00 0.00000000E+00 0.00000000E+00
 2 22 0.00000000E+00 0.00000000E+00 0.00000000E+00 0.00000000E+00 0.00000000E+00
 2 23 0.00000000E+00 0.00000000E+00 0.00000000E+00 0.00000000E+00 0.00000000E+00
 2 24 0.00000000E+00 0.00000000E+00 0.00000000E+00 0.00000000E+00 0.00000000E+00
 2 25 0.00000000E+00 0.00000000E+00 0.00000000E+00 0.00000000E+00 0.00000000E+00
 2 26 0.00000000E+00 0.00000000E+00 0.00000000E+00 0.00000000E+00 0.00000000E+00
 2 27 0.00000000E+00 0.00000000E+00 0.00000000E+00 0.00000000E+00 0.00000000E+00
 2 28 0.00000000E+00 0.00000000E+00 0.00000000E+00 0.00000000E+00 0.00000000E+00
 2 29 0.00000000E+00 0.00000000E+00 0.00000000E+00 0.00000000E+00 0.00000000E+00
 2 30 0.00000000E+00 0.00000000E+00 0.00000000E+00 0.00000000E+00 5.88216940E-04
 2 31 0.00000000E+00 0.00000000E+00 0.00000000E+00 0.00000000E+00-9.24792958E-04
 2 32 0.00000000E+00 1.35617121E-04 0.00000000E+00 0.00000000E+00 6.64849438E-04
 2 33 0.00000000E+00 0.00000000E+00 0.00000000E+00 0.00000000E+00-2.10037068E-03
 2 34 0.00000000E+00 1.20838156E-03 0.00000000E+00 0.00000000E+00 2.04737253E-03
 2 35 0.00000000E+00 0.00000000E+00 0.00000000E+00 0.00000000E+00-3.85435407E-03
 2 36 0.00000000E+00 1.10751558E-03 0.00000000E+00 0.00000000E+00 1.76393720E-03
 2 37 0.00000000E+00 0.00000000E+00 0.00000000E+00 0.00000000E+00-2.16453312E-03
 2 38 0.00000000E+00-2.02036967E-04 0.00000000E+00 0.00000000E+00 3.28875399E-05
 2 39 0.00000000E+00 0.00000000E+00 0.00000000E+00 0.00000000E+00 1.96479425E-06
 2 40 0.00000000E+00-4.60880592E-05 0.00000000E+00 0.00000000E+00 0.00000000E+00
 2 41 0.00000000E+00 0.00000000E+00 0.00000000E+00 0.00000000E+00 0.00000000E+00
 2 42 0.00000000E+00 0.00000000E+00 0.00000000E+00 0.00000000E+00 0.00000000E+00
 2 43 0.00000000E+00 0.00000000E+00 0.00000000E+00 0.00000000E+00 0.00000000E+00
 2 44 0.00000000E+00 0.00000000E+00 0.00000000E+00 0.00000000E+00 0.00000000E+00
 2 45 0.00000000E+00 0.00000000E+00 0.00000000E+00 0.00000000E+00 0.00000000E+00
 2 46 0.00000000E+00 0.00000000E+00 0.00000000E+00 0.00000000E+00 0.00000000E+00
 2 47 0.00000000E+00 0.00000000E+00 0.00000000E+00 0.00000000E+00 0.00000000E+00
 2 48 0.00000000E+00 0.00000000E+00 0.00000000E+00 0.00000000E+00 0.00000000E+00
 2 49 0.00000000E+00 0.00000000E+00 0.00000000E+00 0.00000000E+00 0.00000000E+00
 2 50 0.00000000E+00 0.00000000E+00 0.00000000E+00 0.00000000E+00 0.00000000E+00
 2 51 0.00000000E+00 0.00000000E+00 0.00000000E+00 0.00000000E+00 0.00000000E+00
 2 52 0.00000000E+00 0.00000000E+00 0.00000000E+00 0.00000000E+00
 3  1 0.00000000E+00 0.00000000E+00 0.00000000E+00 0.00000000E+00 0.00000000E+00
 3  2 0.00000000E+00 0.00000000E+00 0.00000000E+00 0.00000000E+00 0.00000000E+00
 3  3 0.00000000E+00 0.00000000E+00 0.00000000E+00 0.00000000E+00 0.00000000E+00
 3  4 0.00000000E+00 0.00000000E+00 0.00000000E+00 0.00000000E+00 0.00000000E+00
 3  5 0.00000000E+00 6.45159507E-05 0.00000000E+00 0.00000000E+00 2.33590826E-04
 3  6 0.00000000E+00 0.00000000E+00-4.05871502E-05 0.00000000E+00 0.00000000E+00
 3  7 2.34153978E-03 0.00000000E+00 0.00000000E+00 6.99386578E-03 0.00000000E+00
 3  8 0.00000000E+00-6.69669276E-02 0.00000000E+00 0.00000000E+00 1.24657349E-02
 3  9 0.00000000E+00 0.00000000E+00 1.79644545E-01 0.00000000E+00 0.00000000E+00
 3 10 2.30780473E-01 0.00000000E+00 0.00000000E+00 3.88754197E-01 0.00000000E+00
 3 11 0.00000000E+00 1.58451596E-01 0.00000000E+00 0.00000000E+00 1.50116058E-02
 3 12 0.00000000E+00 0.00000000E+00-2.19602972E-03 0.00000000E+00 0.00000000E+00
 3 13 9.77509820E-04 0.00000000E+00 0.00000000E+00-4.89444338E-02 0.00000000E+00
 3 14 0.00000000E+00 1.80520885E-01 0.00000000E+00 0.00000000E+00-2.96328558E-04
 3 15 0.00000000E+00 0.00000000E+00 0.00000000E+00 0.00000000E+00 0.00000000E+00
 3 16 0.00000000E+00 0.00000000E+00 0.00000000E+00 0.00000000E+00 0.00000000E+00
 3 17 0.00000000E+00 0.00000000E+00 0.00000000E+00 0.00000000E+00 0.00000000E+00
 3 18 0.00000000E+00 0.00000000E+00 0.00000000E+00 0.00000000E+00 0.00000000E+00
 3 19 0.00000000E+00 0.00000000E+00 0.00000000E+00 0.00000000E+00 0.00000000E+00
 3 20 0.00000000E+00 0.00000000E+00 0.00000000E+00 0.00000000E+00 0.00000000E+00
 3 21 0.00000000E+00 0.00000000E+00 0.00000000E+00 0.00000000E+00 0.00000000E+00
 3 22 0.00000000E+00 0.00000000E+00 0.00000000E+00 0.00000000E+00 0.00000000E+00
 3 23 0.00000000E+00 0.00000000E+00 0.00000000E+00 0.00000000E+00 0.00000000E+00
 3 24 0.00000000E+00 0.00000000E+00 0.00000000E+00 0.00000000E+00 0.00000000E+00
 3 25 0.00000000E+00 0.00000000E+00 0.00000000E+00 0.00000000E+00 0.00000000E+00
 3 26 0.00000000E+00 0.00000000E+00 0.00000000E+00 0.00000000E+00 0.00000000E+00
 3 27 0.00000000E+00 0.00000000E+00 0.00000000E+00 0.00000000E+00 0.00000000E+00
 3 28 0.00000000E+00 0.00000000E+00 0.00000000E+00 0.00000000E+00 0.00000000E+00
 3 29 0.00000000E+00 0.00000000E+00 0.00000000E+00 0.00000000E+00 0.00000000E+00
 3 30 0.00000000E+00 0.00000000E+00 0.00000000E+00 0.00000000E+00 0.00000000E+00
 3 31 5.88216939E-04 0.00000000E+00-9.24792958E-04 0.00000000E+00 0.00000000E+00
 3 32 0.00000000E+00 0.00000000E+00 1.35617121E-04 0.00000000E+00 0.00000000E+00
 3 33 6.64849438E-04 0.00000000E+00-2.10037068E-03 0.00000000E+00 0.00000000E+00
 3 34 0.00000000E+00 0.00000000E+00 1.20838156E-03 0.00000000E+00 0.00000000E+00
 3 35 2.04737253E-03 0.00000000E+00-3.85435407E-03 0.00000000E+00 0.00000000E+00
 3 36 0.00000000E+00 0.00000000E+00 1.10751558E-03 0.00000000E+00 0.00000000E+00
 3 37 1.76393720E-03 0.00000000E+00-2.16453312E-03 0.00000000E+00 0.00000000E+00
 3 38 0.00000000E+00 0.00000000E+00-2.02036967E-04 0.00000000E+00 0.00000000E+00
 3 39 3.28875399E-05 0.00000000E+00 1.96479427E-06 0.00000000E+00 0.00000000E+00
 3 40 0.00000000E+00 0.00000000E+00-4.60880592E-05 0.00000000E+00 0.00000000E+00
 3 41 0.00000000E+00 0.00000000E+00 0.00000000E+00 0.00000000E+00 0.00000000E+00
 3 42 0.00000000E+00 0.00000000E+00 0.00000000E+00 0.00000000E+00 0.00000000E+00
 3 43 0.00000000E+00 0.00000000E+00 0.00000000E+00 0.00000000E+00 0.00000000E+00
 3 44 0.00000000E+00 0.00000000E+00 0.00000000E+00 0.00000000E+00 0.00000000E+00
 3 45 0.00000000E+00 0.00000000E+00 0.00000000E+00 0.00000000E+00 0.00000000E+00
 3 46 0.00000000E+00 0.00000000E+00 0.00000000E+00 0.00000000E+00 0.00000000E+00
 3 47 0.00000000E+00 0.00000000E+00 0.00000000E+00 0.00000000E+00 0.00000000E+00
 3 48 0.00000000E+00 0.00000000E+00 0.00000000E+00 0.00000000E+00 0.00000000E+00
 3 49 0.00000000E+00 0.00000000E+00 0.00000000E+00 0.00000000E+00 0.00000000E+00
 3 50 0.00000000E+00 0.00000000E+00 0.00000000E+00 0.00000000E+00 0.00000000E+00
 3 51 0.00000000E+00 0.00000000E+00 0.00000000E+00 0.00000000E+00 0.00000000E+00
 3 52 0.00000000E+00 0.00000000E+00 0.00000000E+00 0.00000000E+00
 4  1-0.00000000E+00-0.00000000E+00-0.00000000E+00-0.00000000E+00-0.00000000E+00
 4  2-0.00000000E+00-0.00000000E+00-0.00000000E+00-0.00000000E+00-0.00000000E+00
 4  3-0.00000000E+00-0.00000000E+00-0.00000000E+00-0.00000000E+00-0.00000000E+00
 4  4-0.00000000E+00-0.00000000E+00-0.00000000E+00-0.00000000E+00-0.00000000E+00
 4  5-0.00000000E+00-0.00000000E+00 6.46377801E-05-0.00000000E+00-0.00000000E+00
 4  6 2.32678372E-04-0.00000000E+00-0.00000000E+00-3.74453962E-05-0.00000000E+00
 4  7-0.00000000E+00 2.32856839E-03-0.00000000E+00-0.00000000E+00 7.05133847E-03
 4  8-0.00000000E+00-0.00000000E+00-6.70257361E-02-0.00000000E+00-0.00000000E+00
 4  9 1.11485061E-02-0.00000000E+00-0.00000000E+00 1.79559746E-01-0.00000000E+00
 4 10-0.00000000E+00 2.30548509E-01-0.00000000E+00-0.00000000E+00 3.90425294E-01
 4 11-0.00000000E+00-0.00000000E+00 1.55515585E-01-0.00000000E+00-0.00000000E+00
 4 12 1.37029587E-02-0.00000000E+00-0.00000000E+00-2.03274654E-03-0.00000000E+00
 4 13-0.00000000E+00 8.97308549E-04-0.00000000E+00-0.00000000E+00-4.81084446E-02
 4 14-0.00000000E+00-0.00000000E+00 1.82366144E-01-0.00000000E+00-0.00000000E+00
 4 15-2.71498278E-04-0.00000000E+00-0.00000000E+00-0.00000000E+00-0.00000000E+00
 4 16-0.00000000E+00-0.00000000E+00-0.00000000E+00-0.00000000E+00-0.00000000E+00
 4 17-0.00000000E+00-0.00000000E+00-0.00000000E+00-0.00000000E+00-0.00000000E+00
 4 18-0.00000000E+00-0.00000000E+00-0.00000000E+00-0.00000000E+00-0.00000000E+00
 4 19-0.00000000E+00-0.00000000E+00-0.00000000E+00-0.00000000E+00-0.00000000E+00
 4 20-0.00000000E+00-0.00000000E+00-0.00000000E+00-0.00000000E+00-0.00000000E+00
 4 21-0.00000000E+00-0.00000000E+00-0.00000000E+00-0.00000000E+00-0.00000000E+00
 4 22-0.00000000E+00-0.00000000E+00-0.00000000E+00-0.00000000E+00-0.00000000E+00
 4 23-0.00000000E+00-0.00000000E+00-0.00000000E+00-0.00000000E+00-0.00000000E+00
 4 24-0.00000000E+00-0.00000000E+00-0.00000000E+00-0.00000000E+00-0.00000000E+00
 4 25-0.00000000E+00-0.00000000E+00-0.00000000E+00-0.00000000E+00-0.00000000E+00
 4 26-0.00000000E+00-0.00000000E+00-0.00000000E+00-0.00000000E+00-0.00000000E+00
 4 27-0.00000000E+00-0.00000000E+00-0.00000000E+00-0.00000000E+00-0.00000000E+00
 4 28-0.00000000E+00-0.00000000E+00-0.00000000E+00-0.00000000E+00-0.00000000E+00
 4 29-0.00000000E+00-0.00000000E+00-0.00000000E+00-0.00000000E+00-0.00000000E+00
 4 30-0.00000000E+00-0.00000000E+00-0.00000000E+00-0.00000000E+00-0.00000000E+00
 4 31-0.00000000E+00 4.17959888E-04-0.00000000E+00-2.80376014E-04-0.00000000E+00
 4 32-2.80376018E-04-0.00000000E+00-0.00000000E+00-0.00000000E+00-0.00000000E+00
 4 33-0.00000000E+00 1.89503141E-03-0.00000000E+00-1.27122571E-03-0.00000000E+00
 4 34-1.27122571E-03-0.00000000E+00-0.00000000E+00-0.00000000E+00-0.00000000E+00
 4 35-0.00000000E+00 2.30812478E-03-0.00000000E+00-1.54833718E-03-0.00000000E+00
 4 36-1.54833717E-03-0.00000000E+00-0.00000000E+00-0.00000000E+00-0.00000000E+00
 4 37-0.00000000E+00 4.29028707E-04-0.00000000E+00-2.87801201E-04-0.00000000E+00
 4 38-2.87801212E-04-0.00000000E+00-0.00000000E+00-0.00000000E+00-0.00000000E+00
 4 39-0.00000000E+00-4.80119687E-05-0.00000000E+00 3.22073995E-05-0.00000000E+00
 4 40 3.22074160E-05-0.00000000E+00-0.00000000E+00-0.00000000E+00-0.00000000E+00
 4 41-0.00000000E+00-0.00000000E+00-0.00000000E+00-0.00000000E+00-0.00000000E+00
 4 42-0.00000000E+00-0.00000000E+00-0.00000000E+00-0.00000000E+00-0.00000000E+00
 4 43-0.00000000E+00-0.00000000E+00-0.00000000E+00-0.00000000E+00-0.00000000E+00
 4 44-0.00000000E+00-0.00000000E+00-0.00000000E+00-0.00000000E+00-0.00000000E+00
 4 45-0.00000000E+00-0.00000000E+00-0.00000000E+00-0.00000000E+00-0.00000000E+00
 4 46-0.00000000E+00-0.00000000E+00-0.00000000E+00-0.00000000E+00-0.00000000E+00
 4 47-0.00000000E+00-0.00000000E+00-0.00000000E+00-0.00000000E+00-0.00000000E+00
 4 48-0.00000000E+00-0.00000000E+00-0.00000000E+00-0.00000000E+00-0.00000000E+00
 4 49-0.00000000E+00-0.00000000E+00-0.00000000E+00-0.00000000E+00-0.00000000E+00
 4 50-0.00000000E+00-0.00000000E+00-0.00000000E+00-0.00000000E+00-0.00000000E+00
 4 51-0.00000000E+00-0.00000000E+00-0.00000000E+00-0.00000000E+00-0.00000000E+00
 4 52-0.00000000E+00-0.00000000E+00-0.00000000E+00-0.00000000E+00
 5  1 0.00000000E+00 0.00000000E+00 0.00000000E+00 0.00000000E+00 0.00000000E+00
 5  2 0.00000000E+00 0.00000000E+00 0.00000000E+00 0.00000000E+00-1.18541189E-11
 5  3 4.71343279E-11-5.09347255E-11-1.43272775E-10 2.71049041E-11-2.27777891E-11
 5  4 2.44999260E-11-1.48444904E-11-3.20371658E-11 1.54614488E-10 0.00000000E+00
 5  5 0.00000000E+00 0.00000000E+00 0.00000000E+00 0.00000000E+00 0.00000000E+00
 5  6 0.00000000E+00 0.00000000E+00 0.00000000E+00 0.00000000E+00 0.00000000E+00
 5  7 0.00000000E+00 0.00000000E+00 0.00000000E+00 0.00000000E+00 0.00000000E+00
 5  8 0.00000000E+00 0.00000000E+00 0.00000000E+00 0.00000000E+00 0.00000000E+00
 5  9 0.00000000E+00 0.00000000E+00 0.00000000E+00 0.00000000E+00 0.00000000E+00
 5 10 0.00000000E+00 0.00000000E+00 0.00000000E+00 0.00000000E+00 0.00000000E+00
 5 11 0.00000000E+00 0.00000000E+00 0.00000000E+00 0.00000000E+00 0.00000000E+00
 5 12 0.00000000E+00 0.00000000E+00 0.00000000E+00 0.00000000E+00 0.00000000E+00
 5 13 0.00000000E+00 0.00000000E+00 0.00000000E+00 0.00000000E+00 0.00000000E+00
 5 14 0.00000000E+00 0.00000000E+00 0.00000000E+00 0.00000000E+00 0.00000000E+00
 5 15 0.00000000E+00 1.80702886E-03-1.80702886E-03 0.00000000E+00 0.00000000E+00
 5 16 0.00000000E+00 0.00000000E+00 1.30476302E-02-1.30476302E-02 0.00000000E+00
 5 17 0.00000000E+00 0.00000000E+00 0.00000000E+00 5.25042143E-02-5.25042143E-02
 5 18 0.00000000E+00 0.00000000E+00 0.00000000E+00 0.00000000E+00 1.16139625E-01
 5 19-1.16139625E-01 0.00000000E+00 0.00000000E+00 0.00000000E+00 0.00000000E+00
 5 20 1.92194154E-01-1.92194154E-01-2.78317512E-11 0.00000000E+00 0.00000000E+00
 5 21 0.00000000E+00 2.67142911E-01-2.67142911E-01 0.00000000E+00 0.00000000E+00
 5 22 0.00000000E+00 0.00000000E+00 2.63862191E-01-2.63862191E-01 0.00000000E+00
 5 23 0.00000000E+00 0.00000000E+00 0.00000000E+00 1.82242903E-01-1.82242903E-01
 5 24 0.00000000E+00 0.00000000E+00 0.00000000E+00 0.00000000E+00 5.77370266E-02
 5 25-5.77370266E-02 0.00000000E+00 0.00000000E+00 0.00000000E+00 0.00000000E+00
 5 26 5.42309277E-04-5.42309274E-04 0.00000000E+00 0.00000000E+00 0.00000000E+00
 5 27 0.00000000E+00 1.56352825E-02-1.56352825E-02 1.71130469E-11 0.00000000E+00
 5 28 0.00000000E+00 0.00000000E+00 1.66614809E-02-1.66614809E-02 2.51240808E-11
 5 29 0.00000000E+00 0.00000000E+00 0.00000000E+00 4.18990828E-04-4.18990829E-04
 5 30 0.00000000E+00 0.00000000E+00 0.00000000E+00 0.00000000E+00 0.00000000E+00
 5 31 0.00000000E+00 0.00000000E+00 0.00000000E+00 0.00000000E+00 0.00000000E+00
 5 32 0.00000000E+00 0.00000000E+00 0.00000000E+00 0.00000000E+00 0.00000000E+00
 5 33 0.00000000E+00 0.00000000E+00 0.00000000E+00 0.00000000E+00 0.00000000E+00
 5 34 0.00000000E+00 0.00000000E+00 0.00000000E+00 0.00000000E+00 0.00000000E+00
 5 35 0.00000000E+00 0.00000000E+00 0.00000000E+00 0.00000000E+00 0.00000000E+00
 5 36 0.00000000E+00 0.00000000E+00 0.00000000E+00 0.00000000E+00 0.00000000E+00
 5 37 0.00000000E+00 0.00000000E+00 0.00000000E+00 0.00000000E+00 0.00000000E+00
 5 38 0.00000000E+00 0.00000000E+00 0.00000000E+00 0.00000000E+00 0.00000000E+00
 5 39 0.00000000E+00 0.00000000E+00 0.00000000E+00 0.00000000E+00 0.00000000E+00
 5 40 0.00000000E+00 0.00000000E+00 0.00000000E+00 0.00000000E+00-1.46392454E-04
 5 41 1.46392453E-04 0.00000000E+00 0.00000000E+00 0.00000000E+00 0.00000000E+00
 5 42 0.00000000E+00 0.00000000E+00 0.00000000E+00 0.00000000E+00 2.57155931E-04
 5 43-2.57155931E-04 0.00000000E+00 0.00000000E+00 0.00000000E+00-4.34486170E-04
 5 44 4.34486171E-04 0.00000000E+00 0.00000000E+00 0.00000000E+00 0.00000000E+00
 5 45 0.00000000E+00 0.00000000E+00 0.00000000E+00 0.00000000E+00 7.63227153E-04
 5 46-7.63227154E-04 0.00000000E+00 0.00000000E+00 0.00000000E+00-6.32563880E-04
 5 47 6.32563878E-04 0.00000000E+00 0.00000000E+00 0.00000000E+00 0.00000000E+00
 5 48 0.00000000E+00 0.00000000E+00 0.00000000E+00 0.00000000E+00 1.11117445E-03
 5 49-1.11117444E-03 0.00000000E+00 0.00000000E+00 0.00000000E+00-2.63224806E-04
 5 50 2.63224806E-04 0.00000000E+00 0.00000000E+00 0.00000000E+00 0.00000000E+00
 5 51 0.00000000E+00 0.00000000E+00 0.00000000E+00 0.00000000E+00 4.62385993E-04
 5 52-4.62385993E-04 0.00000000E+00 0.00000000E+00 0.00000000E+00
 6  1-3.94783485E-08 3.53616270E-08-3.74343445E-07 4.33296786E-07-2.81733109E-06
 6  2 4.57788179E-06-1.81129138E-05 5.19667709E-05-2.64243596E-04 3.63230904E-04
 6  3 8.93123039E-04-7.28830619E-04-2.66620057E-03-5.18622370E-03 1.05106228E-02
 6  4 9.10629423E-03 1.05429564E-04 2.65838010E-04 1.74930134E-05 9.01612143E-05
 6  5 0.00000000E+00 0.00000000E+00 0.00000000E+00 0.00000000E+00 0.00000000E+00
 6  6 0.00000000E+00 0.00000000E+00 0.00000000E+00 0.00000000E+00 0.00000000E+00
 6  7 0.00000000E+00 0.00000000E+00 0.00000000E+00 0.00000000E+00 0.00000000E+00
 6  8 0.00000000E+00 0.00000000E+00 0.00000000E+00 0.00000000E+00 0.00000000E+00
 6  9 0.00000000E+00 0.00000000E+00 0.00000000E+00 0.00000000E+00 0.00000000E+00
 6 10 0.00000000E+00 0.00000000E+00 0.00000000E+00 0.00000000E+00 0.00000000E+00
 6 11 0.00000000E+00 0.00000000E+00 0.00000000E+00 0.00000000E+00 0.00000000E+00
 6 12 0.00000000E+00 0.00000000E+00 0.00000000E+00 0.00000000E+00 0.00000000E+00
 6 13 0.00000000E+00 0.00000000E+00 0.00000000E+00 0.00000000E+00 0.00000000E+00
 6 14 0.00000000E+00 0.00000000E+00 0.00000000E+00 0.00000000E+00 0.00000000E+00
 6 15 0.00000000E+00-1.06998192E-03-1.06998192E-03 2.13996383E-03 0.00000000E+00
 6 16 0.00000000E+00 0.00000000E+00-7.72147048E-03-7.72147048E-03 1.54429410E-02
 6 17 0.00000000E+00 0.00000000E+00 0.00000000E+00-3.10535066E-02-3.10535066E-02
 6 18 6.21070131E-02 0.00000000E+00 0.00000000E+00 0.00000000E+00-6.87123517E-02
 6 19-6.87123517E-02 1.37424703E-01 0.00000000E+00 0.00000000E+00 0.00000000E+00
 6 20-1.14209363E-01-1.14209362E-01 2.28418725E-01 0.00000000E+00 0.00000000E+00
 6 21 0.00000000E+00-1.59515542E-01-1.59515542E-01 3.19031084E-01 0.00000000E+00
 6 22 0.00000000E+00 0.00000000E+00-1.53018966E-01-1.53018966E-01 3.06037931E-01
 6 23 0.00000000E+00 0.00000000E+00 0.00000000E+00-9.44575644E-02-9.44575644E-02
 6 24 1.88915129E-01 0.00000000E+00 0.00000000E+00 0.00000000E+00-2.30780463E-02
 6 25-2.30780463E-02 4.61560927E-02 0.00000000E+00 0.00000000E+00 0.00000000E+00
 6 26 3.48019662E-04 3.48019663E-04-6.96039325E-04 0.00000000E+00 0.00000000E+00
 6 27 0.00000000E+00-9.57790061E-03-9.57790073E-03 1.91558013E-02 0.00000000E+00
 6 28 0.00000000E+00 0.00000000E+00-1.06017778E-02-1.06017782E-02 2.12035560E-02
 6 29 0.00000000E+00 0.00000000E+00 0.00000000E+00-2.39013488E-04-2.39013491E-04
 6 30 4.78026978E-04 0.00000000E+00 0.00000000E+00 0.00000000E+00 0.00000000E+00
 6 31 0.00000000E+00 0.00000000E+00 0.00000000E+00 0.00000000E+00 0.00000000E+00
 6 32 0.00000000E+00 0.00000000E+00 0.00000000E+00 0.00000000E+00 0.00000000E+00
 6 33 0.00000000E+00 0.00000000E+00 0.00000000E+00 0.00000000E+00 0.00000000E+00
 6 34 0.00000000E+00 0.00000000E+00 0.00000000E+00 0.00000000E+00 0.00000000E+00
 6 35 0.00000000E+00 0.00000000E+00 0.00000000E+00 0.00000000E+00 0.00000000E+00
 6 36 0.00000000E+00 0.00000000E+00 0.00000000E+00 0.00000000E+00 0.00000000E+00
 6 37 0.00000000E+00 0.00000000E+00 0.00000000E+00 0.00000000E+00 0.00000000E+00
 6 38 0.00000000E+00 0.00000000E+00 0.00000000E+00 0.00000000E+00 0.00000000E+00
 6 39 0.00000000E+00 0.00000000E+00 0.00000000E+00 0.00000000E+00 0.00000000E+00
 6 40 0.00000000E+00 0.00000000E+00 0.00000000E+00 0.00000000E+00 5.00825248E-04
 6 41 5.00825245E-04 6.71350684E-04 0.00000000E+00 0.00000000E+00 0.00000000E+00
 6 42 0.00000000E+00 0.00000000E+00 0.00000000E+00-2.90105647E-04-5.89654065E-04
 6 43-5.89654061E-04 0.00000000E+00 0.00000000E+00 0.00000000E+00 1.45774638E-03
 6 44 1.45774639E-03 1.88633371E-03 0.00000000E+00 0.00000000E+00 0.00000000E+00
 6 45 0.00000000E+00 0.00000000E+00 0.00000000E+00-9.03920759E-04-1.65678588E-03
 6 46-1.65678589E-03 0.00000000E+00 0.00000000E+00 0.00000000E+00 1.87254068E-03
 6 47 1.87254067E-03 2.67175104E-03 0.00000000E+00 0.00000000E+00 0.00000000E+00
 6 48 0.00000000E+00 0.00000000E+00 0.00000000E+00-9.42716817E-04-2.34662583E-03
 6 49-2.34662582E-03 0.00000000E+00 0.00000000E+00 0.00000000E+00 5.75535941E-04
 6 50 5.75535948E-04 1.09680631E-03 0.00000000E+00 0.00000000E+00 0.00000000E+00
 6 51 0.00000000E+00 0.00000000E+00 0.00000000E+00-4.76620026E-05-9.63336018E-04
 6 52-9.63336030E-04 0.00000000E+00 0.00000000E+00 0.00000000E+00
 7  1 0.00000000E+00 0.00000000E+00 0.00000000E+00 0.00000000E+00 0.00000000E+00
 7  2 0.00000000E+00 0.00000000E+00 0.00000000E+00 0.00000000E+00 0.00000000E+00
 7  3 0.00000000E+00 0.00000000E+00 0.00000000E+00 0.00000000E+00 0.00000000E+00
 7  4 0.00000000E+00 0.00000000E+00 0.00000000E+00 0.00000000E+00 0.00000000E+00
 7  5 0.00000000E+00 0.00000000E+00 0.00000000E+00 0.00000000E+00 0.00000000E+00
 7  6 0.00000000E+00 0.00000000E+00 0.00000000E+00 0.00000000E+00 0.00000000E+00
 7  7 0.00000000E+00 0.00000000E+00 0.00000000E+00 0.00000000E+00 0.00000000E+00
 7  8 0.00000000E+00 0.00000000E+00 0.00000000E+00 0.00000000E+00 0.00000000E+00
 7  9 0.00000000E+00 0.00000000E+00 0.00000000E+00 0.00000000E+00 0.00000000E+00
 7 10 0.00000000E+00 0.00000000E+00 0.00000000E+00 0.00000000E+00 0.00000000E+00
 7 11 0.00000000E+00 0.00000000E+00 0.00000000E+00 0.00000000E+00 0.00000000E+00