 $CONTRL 
     SCFTYP=ROHF 
     MULT=6
     ICHARG=0 
     RUNTYP=ENERGY
     MAXIT=150
     ECP=READ
     ISPHER=1
 $END

 $SYSTEM 
     KDIAG=3
     MWORDS=100
 $END

 $SCF
    DIRSCF=.t.
    DIIS=.t.
    DAMP=.t.
    SHIFT=.t.
    RSTRCT=.t.
 $END


 $GUESS
!    GUESS=HUCKEL
    GUESS=MOREAD
    NORB=22
    NORDER=1
!    IORDER(5)=10,5,6,7,8,9
 $END


 $DATA  

C1
Mn 25 0.0 0.0 0.0
S  13
  1      76.008334  0.00099300
  2      39.277974  -0.01479600
  3      20.405805  0.12071000
  4      12.218680  -0.12400100
  5       7.182690  -0.32020000
  6       3.850780  -0.10562200
  7       2.142489  0.47272100
  8       1.049631  0.62038700
  9       0.508682  0.20455300
 10       0.192243  0.00592400
 11       0.108899  -0.00009700
 12       0.053425  -0.00018500
 13       0.025236  0.00006100
S  13
  1      76.008334  -0.00019900
  2      39.277974  0.00335200
  3      20.405805  -0.02941300
  4      12.218680  0.03209100
  5       7.182690  0.08315200
  6       3.850780  0.02128300
  7       2.142489  -0.12998900
  8       1.049631  -0.23900600
  9       0.508682  -0.18031500
 10       0.192243  0.11014800
 11       0.108899  0.40442600
 12       0.053425  0.51730700
 13       0.025236  0.14813900
S  13
  1      76.008334    -0.00009100
  2      39.277974    0.00537400
  3      20.405805    -0.05849400
  4      12.218680    0.05634500
  5       7.182690    0.22787400
  6       3.850780    -0.00842000
  7       2.142489    -0.32077700
  8       1.049631    -0.81313700
  9       0.508682    0.32647500
 10       0.192243    1.44754000
 11       0.108899    0.02132100
 12       0.053425    -0.67832300
 13       0.025236    -0.45282800
S  13
  1      76.008334   -0.00052600
  2      39.277974   0.01138000
  3      20.405805   -0.11603400
  4      12.218680   0.14932900
  5       7.182690   0.36015400
  6       3.850780   0.02517400
  7       2.142489   -1.17012500
  8       1.049631   -0.87212300
  9       0.508682   2.55063300
 10       0.192243   0.09034300
 11       0.108899   -2.21058800
 12       0.053425   0.47058200
 13       0.025236   0.83217500
S  13
  1      76.008334   0.00409700
  2      39.277974   -0.03635300
  3      20.405805   0.26570800
  4      12.218680   -0.48518700
  5       7.182690   -0.23228800
  6       3.850780   -0.24179800
  7       2.142489   3.38791800
  8       1.049631   -3.26857300
  9       0.508682   -0.83790100
 10       0.192243   5.26227100
 11       0.108899   -4.29984700
 12       0.053425   -0.44524000
 13       0.025236   1.29402600
S  1
  1       0.025236  1.00000000
P  13
  1     113.479709  0.00010300
  2      58.160819  -0.00089400
  3      30.043076  0.00884400
  4      16.753323  -0.01968500
  5      10.705604  -0.06919000
  6       5.557903  0.01150800
  7       3.080151  0.28231300
  8       1.582963  0.43867800
  9       0.810922  0.30984300
 10       0.413396  0.08394500
 11       0.195480  0.00751700
 12       0.072688  0.00110000
 13       0.035877  0.00029000
P  13
  1     113.479709   0.00001900
  2      58.160819   -0.00002400
  3      30.043076   -0.00122400
  4      16.753323   0.00232000
  5      10.705604   0.02075800
  6       5.557903   -0.01157200
  7       3.080151   -0.06291900
  8       1.582963   -0.13675400
  9       0.810922   -0.06729500
 10       0.413396   -0.03102400
 11       0.195480   0.37898100
 12       0.072688   0.50782400
 13       0.035877   0.26094100
P  13
  1     113.479709   -0.00019700
  2      58.160819   0.00135400
  3      30.043076   -0.01010200
  4      16.753323   0.03060300
  5      10.705604   0.04620000
  6       5.557903   -0.01758800
  7       3.080151   -0.39592000
  8       1.582963   -0.41909300
  9       0.810922   0.07501700
 10       0.413396   1.09298600
 11       0.195480   0.00868000
 12       0.072688   -0.75636900
 13       0.035877   -0.04514900
P  13
  1     113.479709   0.00001400
  2      58.160819   0.00042100
  3      30.043076   -0.00857300
  4      16.753323   0.03879700
  5      10.705604   0.09933800
  6       5.557903   -0.14444500
  7       3.080151   -0.82118200
  8       1.582963   -0.25078500
  9       0.810922   1.79017000
 10       0.413396   -0.39954700
 11       0.195480   -1.29438200
 12       0.072688   0.84704700
 13       0.035877   0.15171000
P  13
  1     113.479709   -0.00021400
  2      58.160819   0.00186900
  3      30.043076   -0.01439900
  4      16.753323   0.08866300
  5      10.705604   0.11611700
  6       5.557903   -0.47666500
  7       3.080151   -1.47189600
  8       1.582963   2.46363500
  9       0.810922   0.10250800
 10       0.413396   -2.77460100
 11       0.195480   2.43625400
 12       0.072688   -0.61701900
 13       0.035877   -0.32367600
P  1
  1       0.035877  1.00000000
D  11
  1     132.688182  0.00003000
  2      45.266024  0.00529400
  3      23.267336  0.02914300
  4      10.605694  0.07677500
  5       5.074684  0.16855100
  6       2.469857  0.25683200
  7       1.205883  0.28989100
  8       0.590569  0.25715400
  9       0.292055  0.18172600
 10       0.149190  0.08998600
 11       0.076511  0.03459500
D  11
  1     132.688182   -0.00002100
  2      45.266024   -0.00544900
  3      23.267336   -0.02903200
  4      10.605694   -0.07982500
  5       5.074684   -0.17441500
  6       2.469857   -0.25340400
  7       1.205883   -0.17430500
  8       0.590569   0.04508100
  9       0.292055   0.34576000
 10       0.149190   0.26372500
 11       0.076511   0.37171500
D  11
  1     132.688182   0.00006000
  2      45.266024   0.00838500
  3      23.267336   0.04580000
  4      10.605694   0.12921500
  5       5.074684   0.28432700
  6       2.469857   0.27076000
  7       1.205883   -0.10159100
  8       0.590569   -0.58067700
  9       0.292055   -0.18169600
 10       0.149190   0.02100300
 11       0.076511   0.72365800
D  11
  1     132.688182   -0.00003700
  2      45.266024   -0.01080900
  3      23.267336   -0.05558200
  4      10.605694   -0.17205300
  5       5.074684   -0.38188900
  6       2.469857   -0.13039900
  7       1.205883   0.81899300
  8       0.590569   0.18014500
  9       0.292055   -0.60472000
 10       0.149190   -0.73358400
 11       0.076511   1.05874100
D  1
  1       0.076511  1.00000000 
F  1
  1       0.405052  1.00000000
F  1
  1       1.369701  1.00000000
F  1
  1       4.631705  1.00000000
G  1
  1       0.893773  1.00000000
G  1
  1       3.265719  1.00000000
S  1
  1       1.916448  1.00000000
S  1
  1       2.807571  1.00000000
P  1
  1       2.153887  1.00000000
P  1
  1       7.123182  1.00000000
D  1
  1       3.346946  1.00000000
D  1
  1       3.910783  1.00000000
F  1
  1       2.949498  1.00000000
G  1
  1       5.760733  1.00000000

 $END

 $ECP
Mn-ccECP GEN 10 2
4
   15.00000000 1 21.91937433
  328.79061500 3 21.35527127
 -162.05172805 2 21.27162653
   -1.82694272 2  7.93913962
2
  244.66870492 2 18.92044965
   33.54162717 2  8.32764757
2
  162.35033685 2 20.17347020
   24.17956695 2  7.80047874
 $END

 $VEC   
 1  1 9.98630569E-01-1.13559734E-02 0.00000000E+00 0.00000000E+00 0.00000000E+00
 1  2 7.15340777E-03 0.00000000E+00 0.00000000E+00 0.00000000E+00 0.00000000E+00
 1  3 0.00000000E+00 0.00000000E+00 0.00000000E+00 0.00000000E+00 0.00000000E+00
 1  4 0.00000000E+00 0.00000000E+00 0.00000000E+00 0.00000000E+00 0.00000000E+00
 1  5 0.00000000E+00 0.00000000E+00 0.00000000E+00 0.00000000E+00-2.16806967E-08
 1  6 7.31033673E-08-5.14226706E-08 1.42886538E-11 3.97130544E-08-4.52020232E-11
 1  7 0.00000000E+00 0.00000000E+00 0.00000000E+00 0.00000000E+00 0.00000000E+00
 1  8 0.00000000E+00 0.00000000E+00 0.00000000E+00 0.00000000E+00 0.00000000E+00
 1  9 0.00000000E+00 0.00000000E+00 0.00000000E+00 0.00000000E+00 0.00000000E+00
 1 10 0.00000000E+00 0.00000000E+00 0.00000000E+00 0.00000000E+00 0.00000000E+00
 1 11 0.00000000E+00 0.00000000E+00 0.00000000E+00 0.00000000E+00 0.00000000E+00
 1 12 0.00000000E+00 0.00000000E+00 0.00000000E+00 0.00000000E+00 0.00000000E+00
 1 13 0.00000000E+00 0.00000000E+00 0.00000000E+00 0.00000000E+00 0.00000000E+00
 1 14 0.00000000E+00 0.00000000E+00 0.00000000E+00 0.00000000E+00 0.00000000E+00
 1 15 0.00000000E+00 0.00000000E+00 0.00000000E+00 0.00000000E+00 0.00000000E+00
 1 16 0.00000000E+00 0.00000000E+00 0.00000000E+00 0.00000000E+00 0.00000000E+00
 1 17 0.00000000E+00 0.00000000E+00 0.00000000E+00 0.00000000E+00 0.00000000E+00
 1 18 0.00000000E+00 0.00000000E+00 0.00000000E+00 0.00000000E+00 0.00000000E+00
 1 19 0.00000000E+00 0.00000000E+00 0.00000000E+00 0.00000000E+00 0.00000000E+00
 1 20 0.00000000E+00 0.00000000E+00 0.00000000E+00 0.00000000E+00-1.53873870E-11
 1 21-2.22919481E-11 0.00000000E+00 0.00000000E+00 2.62290681E-11 0.00000000E+00
 1 22 0.00000000E+00 0.00000000E+00 0.00000000E+00 3.06893219E-11 0.00000000E+00
 1 23 0.00000000E+00 0.00000000E+00-2.30604658E-11 0.00000000E+00-9.38935191E-06
 1 24 4.47249032E-06 0.00000000E+00 0.00000000E+00 0.00000000E+00 0.00000000E+00
 1 25 0.00000000E+00 0.00000000E+00 0.00000000E+00 3.78225701E-11-3.26549509E-11
 1 26 2.16170922E-11 0.00000000E+00-4.69665951E-11 0.00000000E+00-3.14510139E-11
 1 27 2.65819010E-11-2.10317435E-11 0.00000000E+00 4.52833782E-11 0.00000000E+00
 1 28 0.00000000E+00 0.00000000E+00 0.00000000E+00 0.00000000E+00 0.00000000E+00
 1 29 0.00000000E+00 0.00000000E+00 0.00000000E+00 0.00000000E+00 0.00000000E+00
 1 30 0.00000000E+00 0.00000000E+00 0.00000000E+00-1.75189180E-11 0.00000000E+00
 1 31 0.00000000E+00 0.00000000E+00 0.00000000E+00-1.50276378E-11 0.00000000E+00
 1 32 0.00000000E+00 0.00000000E+00 1.84869968E-11 0.00000000E+00
 2  1 0.00000000E+00 0.00000000E+00 0.00000000E+00 0.00000000E+00 0.00000000E+00
 2  2 0.00000000E+00-2.09648963E-01-1.17687323E-03 9.77655391E-01 0.00000000E+00
 2  3 0.00000000E+00 0.00000000E+00 0.00000000E+00 0.00000000E+00 0.00000000E+00
 2  4 0.00000000E+00 0.00000000E+00 0.00000000E+00 0.00000000E+00 0.00000000E+00
 2  5 0.00000000E+00-3.02576007E-04-1.69889629E-06 1.41114471E-03 0.00000000E+00
 2  6 0.00000000E+00 0.00000000E+00 0.00000000E+00 0.00000000E+00 0.00000000E+00
 2  7 0.00000000E+00 0.00000000E+00 0.00000000E+00 0.00000000E+00 0.00000000E+00
 2  8 0.00000000E+00 0.00000000E+00 0.00000000E+00 0.00000000E+00 0.00000000E+00
 2  9 0.00000000E+00 0.00000000E+00 0.00000000E+00 0.00000000E+00 0.00000000E+00
 2 10 0.00000000E+00 0.00000000E+00 0.00000000E+00 0.00000000E+00 0.00000000E+00
 2 11 0.00000000E+00 0.00000000E+00 0.00000000E+00 0.00000000E+00-1.53313415E-10
 2 12 3.67308028E-09 1.68756385E-10-3.85986568E-09-1.05193949E-10-2.73986505E-11
 2 13-1.21216499E-10 2.33090182E-10-1.06808863E-09 2.12486321E-09 1.52263791E-10
 2 14-3.65547430E-09-1.67747681E-10 3.84827945E-09 1.04590469E-10 2.72031727E-11
 2 15 1.20466661E-10-2.31486485E-10 1.05605396E-09-2.11290210E-09 0.00000000E+00
 2 16 0.00000000E+00 0.00000000E+00 0.00000000E+00 0.00000000E+00 0.00000000E+00
 2 17 0.00000000E+00 0.00000000E+00 0.00000000E+00 0.00000000E+00 0.00000000E+00
 2 18 0.00000000E+00 0.00000000E+00 0.00000000E+00 0.00000000E+00 0.00000000E+00
 2 19 0.00000000E+00 0.00000000E+00 0.00000000E+00 0.00000000E+00 0.00000000E+00
 2 20 0.00000000E+00 0.00000000E+00 0.00000000E+00 0.00000000E+00 0.00000000E+00
 2 21 0.00000000E+00 0.00000000E+00 0.00000000E+00 0.00000000E+00 0.00000000E+00
 2 22 0.00000000E+00 0.00000000E+00 0.00000000E+00 0.00000000E+00 0.00000000E+00
 2 23 0.00000000E+00 0.00000000E+00 0.00000000E+00 0.00000000E+00 0.00000000E+00
 2 24 0.00000000E+00 9.50739041E-08 5.28095398E-10-4.43357903E-07-2.12635538E-08
 2 25-1.19970060E-10 9.91582650E-08 0.00000000E+00 0.00000000E+00 0.00000000E+00
 2 26 0.00000000E+00 0.00000000E+00 0.00000000E+00 0.00000000E+00 0.00000000E+00
 2 27 0.00000000E+00 0.00000000E+00 0.00000000E+00 0.00000000E+00 0.00000000E+00
 2 28-2.08373289E-11 0.00000000E+00 1.82527899E-11 0.00000000E+00 0.00000000E+00
 2 29 0.00000000E+00 0.00000000E+00 0.00000000E+00-1.65846752E-11 0.00000000E+00
 2 30 0.00000000E+00 0.00000000E+00 0.00000000E+00 0.00000000E+00 0.00000000E+00
 2 31 0.00000000E+00 0.00000000E+00 0.00000000E+00 0.00000000E+00 0.00000000E+00
 2 32 0.00000000E+00 0.00000000E+00 0.00000000E+00 0.00000000E+00
 3  1 0.00000000E+00 0.00000000E+00 0.00000000E+00 0.00000000E+00 0.00000000E+00
 3  2 0.00000000E+00-2.35945865E-04 9.99881358E-01 1.15303187E-03 0.00000000E+00
 3  3 0.00000000E+00 0.00000000E+00 0.00000000E+00 0.00000000E+00 0.00000000E+00
 3  4 0.00000000E+00 0.00000000E+00 0.00000000E+00 0.00000000E+00 0.00000000E+00
 3  5 0.00000000E+00-3.40564725E-07 1.44334376E-03 1.66433301E-06 0.00000000E+00
 3  6 0.00000000E+00 0.00000000E+00 0.00000000E+00 0.00000000E+00 0.00000000E+00
 3  7 0.00000000E+00 0.00000000E+00 0.00000000E+00 0.00000000E+00 0.00000000E+00
 3  8 0.00000000E+00 0.00000000E+00 0.00000000E+00 0.00000000E+00 0.00000000E+00
 3  9 0.00000000E+00 0.00000000E+00 0.00000000E+00 0.00000000E+00 0.00000000E+00
 3 10 0.00000000E+00 0.00000000E+00 0.00000000E+00 0.00000000E+00 0.00000000E+00
 3 11 0.00000000E+00 0.00000000E+00 0.00000000E+00 0.00000000E+00 3.07561552E-09
 3 12 0.00000000E+00-5.51289675E-10 0.00000000E+00-1.86669605E-09-3.64418252E-09
 3 13 2.60632877E-09-4.82188703E-10 0.00000000E+00 1.22123339E-11-3.06529505E-09
 3 14 0.00000000E+00 5.45901856E-10 0.00000000E+00 1.85867280E-09 3.63038604E-09
 3 15-2.59107700E-09 4.82138817E-10 0.00000000E+00-1.21929227E-11 0.00000000E+00
 3 16 0.00000000E+00 0.00000000E+00 0.00000000E+00 0.00000000E+00 0.00000000E+00
 3 17 0.00000000E+00 0.00000000E+00 0.00000000E+00 0.00000000E+00 0.00000000E+00
 3 18 0.00000000E+00 0.00000000E+00 0.00000000E+00 0.00000000E+00 0.00000000E+00
 3 19 0.00000000E+00 0.00000000E+00 0.00000000E+00 0.00000000E+00 0.00000000E+00
 3 20 0.00000000E+00 0.00000000E+00 0.00000000E+00 0.00000000E+00 0.00000000E+00
 3 21 0.00000000E+00 0.00000000E+00 0.00000000E+00 0.00000000E+00 0.00000000E+00
 3 22 0.00000000E+00 0.00000000E+00 0.00000000E+00 0.00000000E+00 0.00000000E+00
 3 23 0.00000000E+00 0.00000000E+00 0.00000000E+00 0.00000000E+00 0.00000000E+00
 3 24 0.00000000E+00 1.10209374E-10-4.53437200E-07-5.22464749E-10-2.21549943E-11
 3 25 1.01412526E-07 1.16656600E-10 0.00000000E+00 0.00000000E+00 0.00000000E+00
 3 26 0.00000000E+00 0.00000000E+00 0.00000000E+00 0.00000000E+00 0.00000000E+00
 3 27 0.00000000E+00 0.00000000E+00 0.00000000E+00 0.00000000E+00-1.43974296E-11
 3 28 0.00000000E+00 0.00000000E+00 0.00000000E+00 0.00000000E+00 1.33872627E-11
 3 29-1.33664962E-11 0.00000000E+00 0.00000000E+00 0.00000000E+00 0.00000000E+00
 3 30 0.00000000E+00 0.00000000E+00 0.00000000E+00 0.00000000E+00 0.00000000E+00
 3 31 0.00000000E+00 0.00000000E+00 0.00000000E+00 0.00000000E+00 0.00000000E+00
 3 32 0.00000000E+00 0.00000000E+00 0.00000000E+00 0.00000000E+00
 4  1 0.00000000E+00 0.00000000E+00 0.00000000E+00 0.00000000E+00 0.00000000E+00
 4  2 0.00000000E+00 9.77656071E-01-1.10594917E-05 2.09649086E-01 0.00000000E+00
 4  3 0.00000000E+00 0.00000000E+00 0.00000000E+00 0.00000000E+00 0.00000000E+00
 4  4 0.00000000E+00 0.00000000E+00 0.00000000E+00 0.00000000E+00 0.00000000E+00
 4  5 0.00000000E+00 1.41114031E-03-1.59466693E-08 3.02683780E-04 0.00000000E+00
 4  6 0.00000000E+00 0.00000000E+00 0.00000000E+00 0.00000000E+00 0.00000000E+00
 4  7 0.00000000E+00 0.00000000E+00 0.00000000E+00 0.00000000E+00 0.00000000E+00
 4  8 0.00000000E+00 0.00000000E+00 0.00000000E+00 0.00000000E+00 0.00000000E+00
 4  9 0.00000000E+00 0.00000000E+00 0.00000000E+00 0.00000000E+00 0.00000000E+00
 4 10 0.00000000E+00 0.00000000E+00 0.00000000E+00 0.00000000E+00 0.00000000E+00
 4 11 0.00000000E+00 0.00000000E+00 0.00000000E+00 0.00000000E+00-1.06321904E-10
 4 12 2.21431177E-09 6.97312592E-11-1.99399719E-09-1.45063738E-10 3.48468574E-11
 4 13 5.15094368E-11 1.07798946E-10-9.76813798E-10-2.12164113E-09 1.05534375E-10
 4 14-2.20479443E-09-6.82728548E-11 1.99390853E-09 1.43260536E-10-3.45613243E-11
 4 15-5.16628895E-11-1.07027898E-10 9.64133600E-10 2.11576242E-09 0.00000000E+00
 4 16 0.00000000E+00 0.00000000E+00 0.00000000E+00 0.00000000E+00 0.00000000E+00
 4 17 0.00000000E+00 0.00000000E+00 0.00000000E+00 0.00000000E+00 0.00000000E+00
 4 18 0.00000000E+00 0.00000000E+00 0.00000000E+00 0.00000000E+00 0.00000000E+00
 4 19 0.00000000E+00 0.00000000E+00 0.00000000E+00 0.00000000E+00 0.00000000E+00
 4 20 0.00000000E+00 0.00000000E+00 0.00000000E+00 0.00000000E+00 0.00000000E+00
 4 21 0.00000000E+00 0.00000000E+00 0.00000000E+00 0.00000000E+00 0.00000000E+00
 4 22 0.00000000E+00 0.00000000E+00 0.00000000E+00 0.00000000E+00 0.00000000E+00
 4 23 0.00000000E+00 0.00000000E+00 0.00000000E+00 0.00000000E+00 0.00000000E+00
 4 24 0.00000000E+00-4.43358236E-07 0.00000000E+00-9.50739818E-08 9.91583395E-08
 4 25 0.00000000E+00 2.12635684E-08 0.00000000E+00 0.00000000E+00 0.00000000E+00
 4 26 0.00000000E+00 0.00000000E+00 0.00000000E+00 0.00000000E+00 0.00000000E+00
 4 27 0.00000000E+00 0.00000000E+00 0.00000000E+00 0.00000000E+00 0.00000000E+00
 4 28-1.12770824E-11 0.00000000E+00 0.00000000E+00 0.00000000E+00 0.00000000E+00
 4 29 0.00000000E+00 0.00000000E+00 0.00000000E+00 1.50369573E-11 0.00000000E+00
 4 30 0.00000000E+00 0.00000000E+00 0.00000000E+00 0.00000000E+00 0.00000000E+00
 4 31 0.00000000E+00 0.00000000E+00 0.00000000E+00 0.00000000E+00 0.00000000E+00
 4 32 0.00000000E+00 0.00000000E+00 0.00000000E+00 0.00000000E+00
 5  1 2.19342415E-02 1.07387250E+00 0.00000000E+00 0.00000000E+00 0.00000000E+00
 5  2-8.76612466E-02 0.00000000E+00 0.00000000E+00 0.00000000E+00 0.00000000E+00
 5  3 0.00000000E+00 0.00000000E+00 0.00000000E+00 0.00000000E+00 0.00000000E+00
 5  4 0.00000000E+00 0.00000000E+00 0.00000000E+00 0.00000000E+00 0.00000000E+00
 5  5 0.00000000E+00 0.00000000E+00 0.00000000E+00 0.00000000E+00 9.21379818E-05
 5  6-6.78960060E-05-2.42419757E-05-2.57912035E-09-7.51538363E-05 4.42461927E-09
 5  7 0.00000000E+00 0.00000000E+00 0.00000000E+00 0.00000000E+00 0.00000000E+00
 5  8 0.00000000E+00 0.00000000E+00 0.00000000E+00 0.00000000E+00 0.00000000E+00
 5  9 0.00000000E+00 0.00000000E+00 0.00000000E+00 0.00000000E+00 0.00000000E+00
 5 10 0.00000000E+00 0.00000000E+00 0.00000000E+00-2.02574696E-11 1.61266214E-11
 5 11 0.00000000E+00 0.00000000E+00 2.68764812E-11 0.00000000E+00 0.00000000E+00
 5 12 0.00000000E+00 0.00000000E+00 0.00000000E+00 0.00000000E+00 0.00000000E+00
 5 13 0.00000000E+00 0.00000000E+00 0.00000000E+00 0.00000000E+00 0.00000000E+00
 5 14 0.00000000E+00 0.00000000E+00 0.00000000E+00 0.00000000E+00 0.00000000E+00
 5 15 0.00000000E+00 0.00000000E+00 0.00000000E+00 0.00000000E+00 0.00000000E+00
 5 16 0.00000000E+00 0.00000000E+00 0.00000000E+00 0.00000000E+00 0.00000000E+00
 5 17 0.00000000E+00 0.00000000E+00 0.00000000E+00 0.00000000E+00 0.00000000E+00
 5 18 0.00000000E+00 0.00000000E+00 0.00000000E+00 0.00000000E+00 0.00000000E+00
 5 19 0.00000000E+00 0.00000000E+00 0.00000000E+00 0.00000000E+00 0.00000000E+00
 5 20 0.00000000E+00 0.00000000E+00 0.00000000E+00 0.00000000E+00 0.00000000E+00
 5 21 0.00000000E+00 0.00000000E+00 0.00000000E+00 1.09411563E-11 0.00000000E+00
 5 22 0.00000000E+00 0.00000000E+00 0.00000000E+00 0.00000000E+00-1.09406034E-11
 5 23 0.00000000E+00 0.00000000E+00 0.00000000E+00 0.00000000E+00 1.70946422E-05
 5 24-8.84569128E-06 0.00000000E+00 0.00000000E+00 0.00000000E+00 0.00000000E+00
 5 25 0.00000000E+00 0.00000000E+00 2.76664881E-10-2.12263616E-10-6.44012646E-11
 5 26-3.16640250E-11-2.67639073E-10 2.08792921E-11-2.71644569E-10 2.07286971E-10
 5 27 6.43575984E-11 3.03828329E-11 2.58557680E-10-1.99645729E-11 0.00000000E+00
 5 28 0.00000000E+00 0.00000000E+00 0.00000000E+00 0.00000000E+00 0.00000000E+00
 5 29 0.00000000E+00 0.00000000E+00 0.00000000E+00 0.00000000E+00 0.00000000E+00
 5 30 0.00000000E+00 0.00000000E+00 0.00000000E+00 0.00000000E+00 0.00000000E+00
 5 31 0.00000000E+00 0.00000000E+00 0.00000000E+00 0.00000000E+00 0.00000000E+00
 5 32 0.00000000E+00 0.00000000E+00 0.00000000E+00 0.00000000E+00
 6  1 0.00000000E+00 3.39247195E-09 0.00000000E+00 0.00000000E+00 0.00000000E+00
 6  2-8.32875550E-11 0.00000000E+00 0.00000000E+00 0.00000000E+00 0.00000000E+00
 6  3 0.00000000E+00 0.00000000E+00 0.00000000E+00 0.00000000E+00 0.00000000E+00
 6  4 0.00000000E+00 0.00000000E+00 0.00000000E+00 0.00000000E+00 0.00000000E+00
 6  5 0.00000000E+00 0.00000000E+00 0.00000000E+00 0.00000000E+00 1.73875111E-04
 6  6-6.03976555E-05-1.13477456E-04 9.61511885E-01 1.97894465E-04-2.74763216E-01
 6  7 0.00000000E+00 0.00000000E+00 0.00000000E+00 0.00000000E+00 0.00000000E+00
 6  8 0.00000000E+00 0.00000000E+00 0.00000000E+00 0.00000000E+00 0.00000000E+00
 6  9 0.00000000E+00 0.00000000E+00 0.00000000E+00 0.00000000E+00 0.00000000E+00
 6 10 0.00000000E+00 0.00000000E+00 0.00000000E+00-3.94977165E-11 1.37241961E-11
 6 11 2.57735204E-11-2.18517588E-07-3.92044475E-11 6.24439365E-08 0.00000000E+00
 6 12 0.00000000E+00 0.00000000E+00 0.00000000E+00 0.00000000E+00 0.00000000E+00
 6 13 0.00000000E+00 0.00000000E+00 0.00000000E+00 0.00000000E+00 0.00000000E+00
 6 14 0.00000000E+00 0.00000000E+00 0.00000000E+00 0.00000000E+00 0.00000000E+00
 6 15 0.00000000E+00 0.00000000E+00 0.00000000E+00 0.00000000E+00 0.00000000E+00
 6 16 0.00000000E+00 0.00000000E+00 0.00000000E+00 0.00000000E+00 0.00000000E+00
 6 17 0.00000000E+00 0.00000000E+00 0.00000000E+00 0.00000000E+00 0.00000000E+00
 6 18 0.00000000E+00 0.00000000E+00 0.00000000E+00 0.00000000E+00 0.00000000E+00
 6 19 0.00000000E+00 0.00000000E+00 0.00000000E+00 0.00000000E+00 0.00000000E+00
 6 20 0.00000000E+00 0.00000000E+00 0.00000000E+00 0.00000000E+00 0.00000000E+00
 6 21 0.00000000E+00 0.00000000E+00 0.00000000E+00 0.00000000E+00-1.01108258E-11
 6 22 0.00000000E+00 0.00000000E+00 0.00000000E+00 0.00000000E+00 0.00000000E+00
 6 23 0.00000000E+00 0.00000000E+00 0.00000000E+00 0.00000000E+00 0.00000000E+00
 6 24 0.00000000E+00 0.00000000E+00 0.00000000E+00 0.00000000E+00 0.00000000E+00
 6 25 0.00000000E+00 0.00000000E+00 4.24312471E-10-1.47472432E-10-2.76840040E-10
 6 26 2.34922816E-06 4.83383591E-10-6.71319254E-07-4.11147967E-10 1.42896760E-10
 6 27 2.68251207E-10-2.27632976E-06-4.68384809E-10 6.50487691E-07 0.00000000E+00
 6 28 0.00000000E+00 0.00000000E+00 0.00000000E+00 0.00000000E+00 0.00000000E+00
 6 29 0.00000000E+00 0.00000000E+00 0.00000000E+00 0.00000000E+00 0.00000000E+00
 6 30 0.00000000E+00 0.00000000E+00 0.00000000E+00 0.00000000E+00 1.29783825E-11
 6 31 0.00000000E+00 0.00000000E+00 0.00000000E+00 0.00000000E+00 0.00000000E+00
 6 32 0.00000000E+00 0.00000000E+00 0.00000000E+00 0.00000000E+00
 7  1 8.53321848E-07 3.14858528E-05 0.00000000E+00 0.00000000E+00 0.00000000E+00
 7  2-3.93108256E-06 0.00000000E+00 0.00000000E+00 0.00000000E+00 0.00000000E+00
 7  3 0.00000000E+00 0.00000000E+00 0.00000000E+00 0.00000000E+00 0.00000000E+00
 7  4 0.00000000E+00 0.00000000E+00 0.00000000E+00 0.00000000E+00 0.00000000E+00
 7  5 0.00000000E+00 0.00000000E+00 0.00000000E+00 0.00000000E+00 4.58457266E-01
 7  6-6.62346280E-04-4.57794919E-01-2.59969724E-04 8.48622494E-01 2.10224358E-05
 7  7 0.00000000E+00 0.00000000E+00 0.00000000E+00 0.00000000E+00 0.00000000E+00
 7  8 0.00000000E+00 0.00000000E+00 0.00000000E+00 0.00000000E+00 0.00000000E+00
 7  9 0.00000000E+00 0.00000000E+00 0.00000000E+00 0.00000000E+00 0.00000000E+00
 7 10 0.00000000E+00 0.00000000E+00 0.00000000E+00-1.04190929E-07 1.50486175E-10
 7 11 1.04040443E-07 5.90666737E-11-1.92861518E-07 0.00000000E+00 0.00000000E+00
 7 12 0.00000000E+00 0.00000000E+00 0.00000000E+00 0.00000000E+00 0.00000000E+00
 7 13 0.00000000E+00 0.00000000E+00 0.00000000E+00 0.00000000E+00 0.00000000E+00
 7 14 0.00000000E+00 0.00000000E+00 0.00000000E+00 0.00000000E+00 0.00000000E+00
 7 15 0.00000000E+00 0.00000000E+00 0.00000000E+00 0.00000000E+00 0.00000000E+00
 7 16 0.00000000E+00 0.00000000E+00 0.00000000E+00 0.00000000E+00 0.00000000E+00
 7 17 0.00000000E+00 0.00000000E+00 0.00000000E+00 0.00000000E+00 0.00000000E+00
 7 18 0.00000000E+00 0.00000000E+00 0.00000000E+00 0.00000000E+00 0.00000000E+00
 7 19 0.00000000E+00 0.00000000E+00 0.00000000E+00 0.00000000E+00 0.00000000E+00
 7 20 0.00000000E+00 0.00000000E+00 0.00000000E+00 0.00000000E+00 1.03722783E-11
 7 21 0.00000000E+00 0.00000000E+00 0.00000000E+00 0.00000000E+00 0.00000000E+00
 7 22 0.00000000E+00 0.00000000E+00 0.00000000E+00-1.27263724E-11 0.00000000E+00
 7 23 2.20778556E-11 0.00000000E+00 0.00000000E+00 0.00000000E+00 7.29458911E-10
 7 24-3.79965901E-10 0.00000000E+00 0.00000000E+00 0.00000000E+00 0.00000000E+00
 7 25 0.00000000E+00 0.00000000E+00 1.12012884E-06-1.61713214E-09-1.11851171E-06
 7 26-6.34888481E-10 2.07344563E-06 5.14911058E-11-1.08537082E-06 1.56713391E-09
 7 27 1.08380369E-06 6.15187073E-10-2.00910559E-06-4.98927123E-11 0.00000000E+00
 7 28 0.00000000E+00 0.00000000E+00 0.00000000E+00 0.00000000E+00 0.00000000E+00
 7 29 0.00000000E+00 0.00000000E+00 0.00000000E+00 0.00000000E+00 0.00000000E+00
 7 30 0.00000000E+00 0.00000000E+00 0.00000000E+00 0.00000000E+00 0.00000000E+00
 7 31 0.00000000E+00 0.00000000E+00 0.00000000E+00 1.01779508E-11 0.00000000E+00
 7 32-2.04712416E-11 0.00000000E+00 0.00000000E+00 0.00000000E+00
 8  1-1.25189118E-10-9.22013295E-09 0.00000000E+00 0.00000000E+00 0.00000000E+00
 8  2 7.14633221E-10 0.00000000E+00 0.00000000E+00 0.00000000E+00 0.00000000E+00
 8  3 0.00000000E+00 0.00000000E+00 0.00000000E+00 0.00000000E+00 0.00000000E+00
 8  4 0.00000000E+00 0.00000000E+00 0.00000000E+00 0.00000000E+00 0.00000000E+00
 8  5 0.00000000E+00 0.00000000E+00 0.00000000E+00 0.00000000E+00 6.86794153E-05
 8  6-2.66561733E-04 1.97882318E-04 2.74763189E-01 1.06644647E-04 9.61511884E-01
 8  7 0.00000000E+00 0.00000000E+00 0.00000000E+00 0.00000000E+00 0.00000000E+00
 8  8 0.00000000E+00 0.00000000E+00 0.00000000E+00 0.00000000E+00 0.00000000E+00
 8  9 0.00000000E+00 0.00000000E+00 0.00000000E+00 0.00000000E+00 0.00000000E+00
 8 10 0.00000000E+00 0.00000000E+00 0.00000000E+00-1.56029727E-11 6.05782425E-11
 8 11-4.49752698E-11-6.24438449E-08-2.49546822E-11-2.18517231E-07 0.00000000E+00
 8 12 0.00000000E+00 0.00000000E+00 0.00000000E+00 0.00000000E+00 0.00000000E+00
 8 13 0.00000000E+00 0.00000000E+00 0.00000000E+00 0.00000000E+00 0.00000000E+00
 8 14 0.00000000E+00 0.00000000E+00 0.00000000E+00 0.00000000E+00 0.00000000E+00
 8 15 0.00000000E+00 0.00000000E+00 0.00000000E+00 0.00000000E+00 0.00000000E+00
 8 16 0.00000000E+00 0.00000000E+00 0.00000000E+00 0.00000000E+00 0.00000000E+00
 8 17 0.00000000E+00 0.00000000E+00 0.00000000E+00 0.00000000E+00 0.00000000E+00
 8 18 0.00000000E+00 0.00000000E+00 0.00000000E+00 0.00000000E+00 0.00000000E+00
 8 19 0.00000000E+00 0.00000000E+00 0.00000000E+00 0.00000000E+00 0.00000000E+00
 8 20 0.00000000E+00 0.00000000E+00 0.00000000E+00 0.00000000E+00 0.00000000E+00
 8 21 0.00000000E+00 0.00000000E+00 0.00000000E+00 0.00000000E+00 0.00000000E+00
 8 22-1.33077099E-11 0.00000000E+00 1.01789163E-11 0.00000000E+00 0.00000000E+00
 8 23 0.00000000E+00 0.00000000E+00 0.00000000E+00 0.00000000E+00 0.00000000E+00
 8 24 0.00000000E+00 0.00000000E+00 0.00000000E+00 0.00000000E+00 0.00000000E+00
 8 25 0.00000000E+00 0.00000000E+00 1.67620049E-10-6.51192385E-10 4.83572335E-10
 8 26 6.71317881E-07 2.60583304E-10 2.34922328E-06-1.62418452E-10 6.30985264E-10
 8 27-4.68566813E-10-6.50486355E-07-2.52498049E-10-2.27632503E-06 0.00000000E+00
 8 28 0.00000000E+00 0.00000000E+00 0.00000000E+00 0.00000000E+00 0.00000000E+00
 8 29 0.00000000E+00 0.00000000E+00 0.00000000E+00 0.00000000E+00 0.00000000E+00
 8 30 0.00000000E+00 0.00000000E+00-1.05584536E-11 0.00000000E+00 0.00000000E+00
 8 31 1.70829885E-11 0.00000000E+00-1.30664756E-11 0.00000000E+00 0.00000000E+00
 8 32 0.00000000E+00 0.00000000E+00 0.00000000E+00 1.09379049E-11
 9  1 5.11909340E-08 7.65018822E-06 0.00000000E+00 0.00000000E+00 0.00000000E+00
 9  2 2.25427872E-07 0.00000000E+00 0.00000000E+00 0.00000000E+00 0.00000000E+00
 9  3 0.00000000E+00 0.00000000E+00 0.00000000E+00 0.00000000E+00 0.00000000E+00
 9  4 0.00000000E+00 0.00000000E+00 0.00000000E+00 0.00000000E+00 0.00000000E+00
 9  5 0.00000000E+00 0.00000000E+00 0.00000000E+00 0.00000000E+00-7.19690507E-02
 9  6-7.78706220E-01 8.50675271E-01-1.00979761E-04 3.31449889E-01-2.65114999E-04
 9  7 0.00000000E+00 0.00000000E+00 0.00000000E+00 0.00000000E+00 0.00000000E+00
 9  8 0.00000000E+00 0.00000000E+00 0.00000000E+00 0.00000000E+00 0.00000000E+00
 9  9 0.00000000E+00 0.00000000E+00 0.00000000E+00 0.00000000E+00 0.00000000E+00
 9 10 0.00000000E+00 0.00000000E+00 0.00000000E+00 1.63547151E-08 1.76972682E-07
 9 11-1.93327397E-07 2.30015178E-11-7.53261836E-08 5.80325064E-11 0.00000000E+00
 9 12 0.00000000E+00 0.00000000E+00 0.00000000E+00 0.00000000E+00 0.00000000E+00
 9 13 0.00000000E+00 0.00000000E+00 0.00000000E+00 0.00000000E+00 0.00000000E+00
 9 14 0.00000000E+00 0.00000000E+00 0.00000000E+00 0.00000000E+00 0.00000000E+00
 9 15 0.00000000E+00 0.00000000E+00 0.00000000E+00 0.00000000E+00 0.00000000E+00
 9 16 0.00000000E+00 0.00000000E+00 0.00000000E+00 0.00000000E+00 0.00000000E+00
 9 17 0.00000000E+00 0.00000000E+00 0.00000000E+00 0.00000000E+00 0.00000000E+00
 9 18 0.00000000E+00 0.00000000E+00 0.00000000E+00 0.00000000E+00 0.00000000E+00
 9 19 0.00000000E+00 0.00000000E+00 0.00000000E+00 0.00000000E+00 0.00000000E+00
 9 20 0.00000000E+00 0.00000000E+00 0.00000000E+00 0.00000000E+00 0.00000000E+00
 9 21 1.35281674E-11 0.00000000E+00 0.00000000E+00-1.11102334E-11 0.00000000E+00
 9 22 0.00000000E+00 1.58619506E-11 0.00000000E+00-1.49111692E-11 0.00000000E+00
 9 23 0.00000000E+00 0.00000000E+00 0.00000000E+00 0.00000000E+00-3.88537273E-11
 9 24 2.17357779E-11 0.00000000E+00 0.00000000E+00 0.00000000E+00 0.00000000E+00
 9 25 0.00000000E+00 0.00000000E+00-1.75809758E-07-1.90259626E-06 2.07840602E-06
 9 26-2.46926351E-10 8.09938111E-07-6.48163867E-10 1.70358579E-07 1.84355501E-06
 9 27-2.01391359E-06 2.39262632E-10-7.84807020E-07 6.28049048E-10 0.00000000E+00
 9 28 0.00000000E+00 0.00000000E+00 0.00000000E+00 0.00000000E+00 0.00000000E+00
 9 29 0.00000000E+00 0.00000000E+00 0.00000000E+00 0.00000000E+00 0.00000000E+00
 9 30-1.08574697E-11 0.00000000E+00 0.00000000E+00 0.00000000E+00 0.00000000E+00