 $CONTRL 
     SCFTYP=ROHF
     MULT=3 
     ICHARG=0 
     RUNTYP=ENERGY 
     MAXIT=150 
     PP=READ
 $END

 $CONTRL 
     ISPHER=1 
 $END

 $SYSTEM 
     KDIAG=3
     mwords=125 
 $END

 $GUESS
    GUESS=HUCKEL
 $END

 $DATA  
                                                                                
C1
C 6 0. 0. 0.
s 9
1 13.073594  0.0051583
2 6.541187   0.0603424
3 4.573411   -0.1978471
4 1.637494   -0.0810340
5 0.819297   0.2321726
6 0.409924   0.2914643
7 0.231300   0.4336405
8 0.102619   0.2131940
9 0.051344   0.0049848
s 1
1 0.846879   1.000000 
s 1
1 0.269659   1.000000
s 1
1 0.109576   1.000000
s 1
1 0.043830   1.000000
p 9
1 9.934169  0.0209076
2 3.886955  0.0572698
3 1.871016  0.1122682
4 0.935757  0.2130082
5 0.468003  0.2835815
6 0.239473  0.3011207
7 0.117063  0.2016934
8 0.058547  0.0453575
9 0.029281  0.0029775
p 1
1 0.804681  1.000000 
p 1
1 0.313254  1.000000 
p 1
1 0.105389  1.000000 
p 1
1 0.042156  1.000000
d 1     
1 2.013760  1.000000 
d 1     
1 0.684884  1.000000 
d 1     
1 0.240171  1.000000 
d 1     
1 0.096069  1.000000
f 1
1 0.457302  1.000000 
f 1
1 1.324930  1.000000
f 1
1 0.529972  1.000000
g 1
1 1.034180  1.000000 
g 1
1 0.413672  1.000000

 $END

 $ECP
C-QMC GEN 2 1
3
4.00000    1 14.43502 
57.74008   3 8.39889  
-25.81955  2 7.38188  
1
52.13345   2 7.76079 

 $END

