 $CONTRL 
     SCFTYP=ROHF
     MULT=5
     ICHARG=0
     RUNTYP=ENERGY 
     MAXIT=150 
     PP=READ
 $END

 $CONTRL 
     ISPHER=1 
 $END

 $SYSTEM 
     KDIAG=3
     mwords=125 
 $END

 $GUESS
    GUESS=MOREAD
    NORB=228
    NORDER=1
    IORDER(5)=10,5,6,7,8,9
 $END

 $DATA  
                                                                                
C1
Fe 26 0. 0. 0.
S    1
  1 221346121.500      1.000000 
S    1
  1 4426922.43000      1.000000 
S    1
  1  221346.12150      1.000000 
S    1
  1   22134.61215      1.000000 
S    1
  1    4426.92243      1.000000 
S    1
  1    1264.83498      1.000000 
S    1
  1     421.61166      1.000000 
S    1
  1     168.64466      1.000000 
S    1
  1     84.322332      1.000000 
S    1
  1     44.203528      1.000000 
S    1
  1     23.288963      1.000000 
S    1
  1     13.385163      1.000000 
S    1
  1      7.518052      1.000000 
S    1
  1      4.101835      1.000000 
S    1
  1      2.253571      1.000000 
S    1
  1      1.134924      1.000000 
S    1
  1      0.561550      1.000000 
S    1
  1      0.201961      1.000000 
S    1
  1      0.108698      1.000000 
S    1
  1      0.053619      1.000000 
S    1
  1      0.025823      1.000000 
S    1
  1      0.012         1.000000
P    1
  1  40853.674408     1.000000 
P    1
  1   9670.272581     1.000000 
P    1
  1   3142.245559     1.000000 
P    1
  1   1203.942830     1.000000 
P    1
  1    547.731484     1.000000 
P    1
  1    258.056168     1.000000 
P    1
  1    125.092775     1.000000 
P    1
  1     65.211589     1.000000 
P    1
  1     34.437599     1.000000 
P    1
  1     18.930704     1.000000 
P    1
  1     10.873415     1.000000 
P    1
  1     6.012172      1.000000 
P    1
  1     3.372205      1.000000 
P    1
  1     1.768641      1.000000 
P    1
  1     0.914516      1.000000 
P    1
  1     0.460895      1.000000 
P    1
  1     0.204490      1.000000 
P    1
  1     0.074741      1.000000 
P    1
  1     0.035671      1.000000 
P    1
  1     0.017         1.000000
D    1
  1   5928.225543     1.000000 
D    1
  1   1750.912000     1.000000 
D    1
  1    517.134988     1.000000 
D    1
  1    152.736742     1.000000 
D    1
  1     50.772485     1.000000 
D    1
  1     26.253589     1.000000 
D    1
  1     12.137022     1.000000 
D    1
  1     5.853719      1.000000 
D    1
  1     2.856224      1.000000 
D    1
  1     1.386132      1.000000 
D    1
  1     0.670802      1.000000 
D    1
  1     0.330280      1.000000 
D    1
  1     0.170907      1.000000 
D    1
  1     0.086794      1.000000 
D    1
  1     0.04          1.000000
F    1
  1     0.115778      1.000000 
F    1
  1     0.334367      1.000000
F    1
  1     0.96565       1.000000
F    1
  1     2.788793      1.000000
F    1
  1     8.05402       1.000000 
G    1
  1     0.227726      1.000000
G    1
  1     0.673444      1.000000
G    1
  1     1.99155       1.000000
G    1
  1     5.889532      1.000000

 $END

 $ECP
Fe-STU GEN 10 3
1
0.000000    2 1.000000  
2
253.749588  2 20.930000 
37.922845   2 9.445000  
2
161.036812  2 21.760000 
27.651298   2 9.178000  
2
-24.431276  2 25.900000 
-1.434251   2 8.835000  

 $END


 $VEC   
 1  1 1.59729672E-10 1.59551189E-08 5.49036248E-07 6.80020919E-06 3.67143618E-05
 1  2 1.37221270E-04 3.94371992E-04 5.37823483E-04 1.52428433E-03-1.32423342E-02
 1  3 1.16287196E-01-1.43261619E-01-3.32770597E-01-3.76470291E-02 4.82609824E-01
 1  4 5.86505597E-01 1.94192537E-01 8.22566494E-03-3.64015451E-04 1.33475977E-03
 1  5-2.41414719E-04 5.72484888E-05 0.00000000E+00 0.00000000E+00 0.00000000E+00
 1  6 0.00000000E+00 0.00000000E+00 0.00000000E+00 0.00000000E+00 0.00000000E+00
 1  7 0.00000000E+00 0.00000000E+00 0.00000000E+00 0.00000000E+00 0.00000000E+00
 1  8 0.00000000E+00 0.00000000E+00 0.00000000E+00 0.00000000E+00 0.00000000E+00
 1  9 0.00000000E+00 0.00000000E+00 0.00000000E+00 0.00000000E+00 0.00000000E+00
 1 10 0.00000000E+00 0.00000000E+00 0.00000000E+00 0.00000000E+00 0.00000000E+00
 1 11 0.00000000E+00 0.00000000E+00 0.00000000E+00 0.00000000E+00 0.00000000E+00
 1 12 0.00000000E+00 0.00000000E+00 0.00000000E+00 0.00000000E+00 0.00000000E+00
 1 13 0.00000000E+00 0.00000000E+00 0.00000000E+00 0.00000000E+00 0.00000000E+00
 1 14 0.00000000E+00 0.00000000E+00 0.00000000E+00 0.00000000E+00 0.00000000E+00
 1 15 0.00000000E+00 0.00000000E+00 0.00000000E+00 0.00000000E+00 0.00000000E+00
 1 16 0.00000000E+00 0.00000000E+00 0.00000000E+00 0.00000000E+00 0.00000000E+00
 1 17 0.00000000E+00 0.00000000E+00 2.44292242E-10 2.44292242E-10-4.88584485E-10
 1 18 0.00000000E+00 0.00000000E+00 0.00000000E+00 1.22378031E-09 1.22378031E-09
 1 19-2.44756061E-09 0.00000000E+00 0.00000000E+00 0.00000000E+00 3.33121809E-08
 1 20 3.33121809E-08-6.66243618E-08 0.00000000E+00 0.00000000E+00 0.00000000E+00
 1 21 4.37784223E-07 4.37784223E-07-8.75568446E-07 0.00000000E+00 0.00000000E+00
 1 22 0.00000000E+00 4.72495169E-06 4.72495169E-06-9.44990339E-06 0.00000000E+00
 1 23 0.00000000E+00 0.00000000E+00 9.14611472E-06 9.14611472E-06-1.82922294E-05
 1 24 0.00000000E+00 0.00000000E+00 0.00000000E+00 1.01267316E-04 1.01267316E-04
 1 25-2.02534632E-04 0.00000000E+00 0.00000000E+00 0.00000000E+00 6.01422323E-05
 1 26 6.01422323E-05-1.20284465E-04 0.00000000E+00 0.00000000E+00 0.00000000E+00
 1 27-4.97725615E-04-4.97725615E-04 9.95451230E-04 0.00000000E+00 0.00000000E+00
 1 28 0.00000000E+00-6.50108699E-05-6.50108699E-05 1.30021740E-04 0.00000000E+00
 1 29 0.00000000E+00 0.00000000E+00 9.44062706E-04 9.44062706E-04-1.88812541E-03
 1 30 0.00000000E+00 0.00000000E+00 0.00000000E+00 6.12628318E-04 6.12628318E-04
 1 31-1.22525664E-03 0.00000000E+00 0.00000000E+00 0.00000000E+00 1.76492671E-04
 1 32 1.76492671E-04-3.52985342E-04 0.00000000E+00 0.00000000E+00 0.00000000E+00
 1 33 1.13470514E-05 1.13470514E-05-2.26941027E-05 0.00000000E+00 0.00000000E+00
 1 34 0.00000000E+00 4.45876962E-07 4.45876962E-07-8.91753923E-07 0.00000000E+00
 1 35 0.00000000E+00 0.00000000E+00 0.00000000E+00 0.00000000E+00 0.00000000E+00
 1 36 0.00000000E+00 0.00000000E+00 0.00000000E+00 0.00000000E+00 0.00000000E+00
 1 37 0.00000000E+00 0.00000000E+00 0.00000000E+00 0.00000000E+00 0.00000000E+00
 1 38 0.00000000E+00 0.00000000E+00 0.00000000E+00 0.00000000E+00 0.00000000E+00
 1 39 0.00000000E+00 0.00000000E+00 0.00000000E+00 0.00000000E+00 0.00000000E+00
 1 40 0.00000000E+00 0.00000000E+00 0.00000000E+00 0.00000000E+00 0.00000000E+00
 1 41 0.00000000E+00 0.00000000E+00 0.00000000E+00 0.00000000E+00 0.00000000E+00
 1 42 0.00000000E+00 0.00000000E+00 0.00000000E+00 0.00000000E+00 0.00000000E+00
 1 43 0.00000000E+00 0.00000000E+00 0.00000000E+00 0.00000000E+00 0.00000000E+00
 1 44 0.00000000E+00 0.00000000E+00 0.00000000E+00 0.00000000E+00 0.00000000E+00
 1 45 0.00000000E+00 0.00000000E+00-8.49242407E-06-8.49242407E-06-4.49702278E-06
 1 46 0.00000000E+00 0.00000000E+00 0.00000000E+00 0.00000000E+00 0.00000000E+00
 1 47 0.00000000E+00 1.09681827E-05 3.94978037E-06 3.94978037E-06 0.00000000E+00
 1 48 0.00000000E+00 0.00000000E+00 4.20955509E-04 4.20955509E-04 7.39509626E-05
 1 49 0.00000000E+00 0.00000000E+00 0.00000000E+00 0.00000000E+00 0.00000000E+00
 1 50 0.00000000E+00-6.74507047E-04-6.49518748E-05-6.49518748E-05 0.00000000E+00
 1 51 0.00000000E+00 0.00000000E+00 4.08795487E-04 4.08795487E-04 7.97399905E-05
 1 52 0.00000000E+00 0.00000000E+00 0.00000000E+00 0.00000000E+00 0.00000000E+00
 1 53 0.00000000E+00-6.48061946E-04-7.00364362E-05-7.00364362E-05 0.00000000E+00
 1 54 0.00000000E+00 0.00000000E+00 1.64395636E-04 1.64395636E-04 3.44527166E-05
 1 55 0.00000000E+00 0.00000000E+00 0.00000000E+00 0.00000000E+00 0.00000000E+00
 1 56 0.00000000E+00-2.58520515E-04-3.02601678E-05-3.02601678E-05 0.00000000E+00
 1 57 0.00000000E+00 0.00000000E+00
 2  1 0.00000000E+00 0.00000000E+00 0.00000000E+00 0.00000000E+00 0.00000000E+00
 2  2 0.00000000E+00 0.00000000E+00 0.00000000E+00 0.00000000E+00 0.00000000E+00
 2  3 0.00000000E+00 0.00000000E+00 0.00000000E+00 0.00000000E+00 0.00000000E+00
 2  4 0.00000000E+00 0.00000000E+00 0.00000000E+00 0.00000000E+00 0.00000000E+00
 2  5 0.00000000E+00 0.00000000E+00 8.36833264E-08 0.00000000E+00 0.00000000E+00
 2  6 1.77564819E-07 0.00000000E+00 0.00000000E+00 4.31500451E-06 0.00000000E+00
 2  7 0.00000000E+00 4.12306996E-06 0.00000000E+00 0.00000000E+00 6.54937497E-05
 2  8 0.00000000E+00 0.00000000E+00 3.78303704E-05 0.00000000E+00 0.00000000E+00
 2  9 6.39570044E-04 0.00000000E+00 0.00000000E+00-7.81576651E-04 0.00000000E+00
 2 10 0.00000000E+00 1.14959439E-02 0.00000000E+00 0.00000000E+00-3.05263567E-02
 2 11 0.00000000E+00 0.00000000E+00-7.32348429E-02 0.00000000E+00 0.00000000E+00
 2 12 3.04003315E-02 0.00000000E+00 0.00000000E+00 2.72668253E-01 0.00000000E+00
 2 13 0.00000000E+00 4.15006805E-01 0.00000000E+00 0.00000000E+00 3.16637267E-01
 2 14 0.00000000E+00 0.00000000E+00 1.07139631E-01 0.00000000E+00 0.00000000E+00
 2 15 8.12619505E-03 0.00000000E+00 0.00000000E+00 1.66294162E-04 0.00000000E+00
 2 16 0.00000000E+00-3.00309886E-05 0.00000000E+00 0.00000000E+00 1.26036853E-05
 2 17 0.00000000E+00 0.00000000E+00 0.00000000E+00 0.00000000E+00 0.00000000E+00
 2 18 0.00000000E+00 0.00000000E+00 0.00000000E+00 0.00000000E+00 0.00000000E+00
 2 19 0.00000000E+00 0.00000000E+00 0.00000000E+00 0.00000000E+00 0.00000000E+00
 2 20 0.00000000E+00 0.00000000E+00 0.00000000E+00 0.00000000E+00 0.00000000E+00
 2 21 0.00000000E+00 0.00000000E+00 0.00000000E+00 0.00000000E+00 0.00000000E+00
 2 22 0.00000000E+00 0.00000000E+00 0.00000000E+00 0.00000000E+00 0.00000000E+00
 2 23 0.00000000E+00 0.00000000E+00 0.00000000E+00 0.00000000E+00 0.00000000E+00
 2 24 0.00000000E+00 0.00000000E+00 0.00000000E+00 0.00000000E+00 0.00000000E+00
 2 25 0.00000000E+00 0.00000000E+00 0.00000000E+00 0.00000000E+00 0.00000000E+00
 2 26 0.00000000E+00 0.00000000E+00 0.00000000E+00 0.00000000E+00 0.00000000E+00
 2 27 0.00000000E+00 0.00000000E+00 0.00000000E+00 0.00000000E+00 0.00000000E+00
 2 28 0.00000000E+00 0.00000000E+00 0.00000000E+00 0.00000000E+00 0.00000000E+00
 2 29 0.00000000E+00 0.00000000E+00 0.00000000E+00 0.00000000E+00 0.00000000E+00
 2 30 0.00000000E+00 0.00000000E+00 0.00000000E+00 0.00000000E+00 0.00000000E+00
 2 31 0.00000000E+00 0.00000000E+00 0.00000000E+00 0.00000000E+00 0.00000000E+00
 2 32 0.00000000E+00 0.00000000E+00 0.00000000E+00 0.00000000E+00 0.00000000E+00
 2 33 0.00000000E+00 0.00000000E+00 0.00000000E+00 0.00000000E+00 0.00000000E+00
 2 34 0.00000000E+00 0.00000000E+00 0.00000000E+00 0.00000000E+00 0.00000000E+00
 2 35 0.00000000E+00 0.00000000E+00-2.90995163E-05 0.00000000E+00 0.00000000E+00
 2 36 0.00000000E+00 0.00000000E+00-6.71891773E-06 0.00000000E+00 4.57600156E-05
 2 37 0.00000000E+00 0.00000000E+00 1.06660498E-03 0.00000000E+00 0.00000000E+00
 2 38 0.00000000E+00 0.00000000E+00-1.08230259E-03 0.00000000E+00-3.48698156E-04
 2 39 0.00000000E+00 0.00000000E+00 2.33364634E-03 0.00000000E+00 0.00000000E+00
 2 40 0.00000000E+00 0.00000000E+00-3.88372492E-03 0.00000000E+00 7.52809802E-04
 2 41 0.00000000E+00 0.00000000E+00 1.16803250E-03 0.00000000E+00 0.00000000E+00
 2 42 0.00000000E+00 0.00000000E+00-3.15325897E-03 0.00000000E+00 1.58617893E-03
 2 43 0.00000000E+00 0.00000000E+00 5.66373476E-04 0.00000000E+00 0.00000000E+00
 2 44 0.00000000E+00 0.00000000E+00-9.42260255E-04 0.00000000E+00 1.82390499E-04
 2 45 0.00000000E+00 0.00000000E+00 0.00000000E+00 0.00000000E+00 0.00000000E+00
 2 46 0.00000000E+00 0.00000000E+00 0.00000000E+00 0.00000000E+00 0.00000000E+00
 2 47 0.00000000E+00 0.00000000E+00 0.00000000E+00 0.00000000E+00 0.00000000E+00
 2 48 0.00000000E+00 0.00000000E+00 0.00000000E+00 0.00000000E+00 0.00000000E+00
 2 49 0.00000000E+00 0.00000000E+00 0.00000000E+00 0.00000000E+00 0.00000000E+00
 2 50 0.00000000E+00 0.00000000E+00 0.00000000E+00 0.00000000E+00 0.00000000E+00
 2 51 0.00000000E+00 0.00000000E+00 0.00000000E+00 0.00000000E+00 0.00000000E+00
 2 52 0.00000000E+00 0.00000000E+00 0.00000000E+00 0.00000000E+00 0.00000000E+00
 2 53 0.00000000E+00 0.00000000E+00 0.00000000E+00 0.00000000E+00 0.00000000E+00
 2 54 0.00000000E+00 0.00000000E+00 0.00000000E+00 0.00000000E+00 0.00000000E+00
 2 55 0.00000000E+00 0.00000000E+00 0.00000000E+00 0.00000000E+00 0.00000000E+00
 2 56 0.00000000E+00 0.00000000E+00 0.00000000E+00 0.00000000E+00 0.00000000E+00
 2 57 0.00000000E+00 0.00000000E+00
 3  1 0.00000000E+00 0.00000000E+00 0.00000000E+00 0.00000000E+00 0.00000000E+00
 3  2 0.00000000E+00 0.00000000E+00 0.00000000E+00 0.00000000E+00 0.00000000E+00
 3  3 0.00000000E+00 0.00000000E+00 0.00000000E+00 0.00000000E+00 0.00000000E+00
 3  4 0.00000000E+00 0.00000000E+00 0.00000000E+00 0.00000000E+00 0.00000000E+00
 3  5 0.00000000E+00 0.00000000E+00 0.00000000E+00 8.36833265E-08 0.00000000E+00
 3  6 0.00000000E+00 1.77564820E-07 0.00000000E+00 0.00000000E+00 4.31500451E-06
 3  7 0.00000000E+00 0.00000000E+00 4.12306996E-06 0.00000000E+00 0.00000000E+00
 3  8 6.54937497E-05 0.00000000E+00 0.00000000E+00 3.78303704E-05 0.00000000E+00
 3  9 0.00000000E+00 6.39570044E-04 0.00000000E+00 0.00000000E+00-7.81576651E-04
 3 10 0.00000000E+00 0.00000000E+00 1.14959439E-02 0.00000000E+00 0.00000000E+00
 3 11-3.05263567E-02 0.00000000E+00 0.00000000E+00-7.32348429E-02 0.00000000E+00
 3 12 0.00000000E+00 3.04003315E-02 0.00000000E+00 0.00000000E+00 2.72668253E-01
 3 13 0.00000000E+00 0.00000000E+00 4.15006805E-01 0.00000000E+00 0.00000000E+00
 3 14 3.16637267E-01 0.00000000E+00 0.00000000E+00 1.07139631E-01 0.00000000E+00
 3 15 0.00000000E+00 8.12619504E-03 0.00000000E+00 0.00000000E+00 1.66294163E-04
 3 16 0.00000000E+00 0.00000000E+00-3.00309876E-05 0.00000000E+00 0.00000000E+00
 3 17 1.26036842E-05 0.00000000E+00 0.00000000E+00 0.00000000E+00 0.00000000E+00
 3 18 0.00000000E+00 0.00000000E+00 0.00000000E+00 0.00000000E+00 0.00000000E+00
 3 19 0.00000000E+00 0.00000000E+00 0.00000000E+00 0.00000000E+00 0.00000000E+00
 3 20 0.00000000E+00 0.00000000E+00 0.00000000E+00 0.00000000E+00 0.00000000E+00
 3 21 0.00000000E+00 0.00000000E+00 0.00000000E+00 0.00000000E+00 0.00000000E+00
 3 22 0.00000000E+00 0.00000000E+00 0.00000000E+00 0.00000000E+00 0.00000000E+00
 3 23 0.00000000E+00 0.00000000E+00 0.00000000E+00 0.00000000E+00 0.00000000E+00
 3 24 0.00000000E+00 0.00000000E+00 0.00000000E+00 0.00000000E+00 0.00000000E+00
 3 25 0.00000000E+00 0.00000000E+00 0.00000000E+00 0.00000000E+00 0.00000000E+00
 3 26 0.00000000E+00 0.00000000E+00 0.00000000E+00 0.00000000E+00 0.00000000E+00
 3 27 0.00000000E+00 0.00000000E+00 0.00000000E+00 0.00000000E+00 0.00000000E+00
 3 28 0.00000000E+00 0.00000000E+00 0.00000000E+00 0.00000000E+00 0.00000000E+00
 3 29 0.00000000E+00 0.00000000E+00 0.00000000E+00 0.00000000E+00 0.00000000E+00
 3 30 0.00000000E+00 0.00000000E+00 0.00000000E+00 0.00000000E+00 0.00000000E+00
 3 31 0.00000000E+00 0.00000000E+00 0.00000000E+00 0.00000000E+00 0.00000000E+00
 3 32 0.00000000E+00 0.00000000E+00 0.00000000E+00 0.00000000E+00 0.00000000E+00
 3 33 0.00000000E+00 0.00000000E+00 0.00000000E+00 0.00000000E+00 0.00000000E+00
 3 34 0.00000000E+00 0.00000000E+00 0.00000000E+00 0.00000000E+00 0.00000000E+00
 3 35 0.00000000E+00 0.00000000E+00 0.00000000E+00-2.90995163E-05 0.00000000E+00
 3 36-6.71891773E-06 0.00000000E+00 0.00000000E+00 0.00000000E+00 0.00000000E+00
 3 37 4.57600156E-05 0.00000000E+00 0.00000000E+00 1.06660498E-03 0.00000000E+00
 3 38-1.08230259E-03 0.00000000E+00 0.00000000E+00 0.00000000E+00 0.00000000E+00
 3 39-3.48698156E-04 0.00000000E+00 0.00000000E+00 2.33364634E-03 0.00000000E+00
 3 40-3.88372492E-03 0.00000000E+00 0.00000000E+00 0.00000000E+00 0.00000000E+00
 3 41 7.52809802E-04 0.00000000E+00 0.00000000E+00 1.16803250E-03 0.00000000E+00
 3 42-3.15325897E-03 0.00000000E+00 0.00000000E+00 0.00000000E+00 0.00000000E+00
 3 43 1.58617893E-03 0.00000000E+00 0.00000000E+00 5.66373476E-04 0.00000000E+00
 3 44-9.42260255E-04 0.00000000E+00 0.00000000E+00 0.00000000E+00 0.00000000E+00
 3 45 1.82390499E-04 0.00000000E+00 0.00000000E+00 0.00000000E+00 0.00000000E+00
 3 46 0.00000000E+00 0.00000000E+00 0.00000000E+00 0.00000000E+00 0.00000000E+00
 3 47 0.00000000E+00 0.00000000E+00 0.00000000E+00 0.00000000E+00 0.00000000E+00
 3 48 0.00000000E+00 0.00000000E+00 0.00000000E+00 0.00000000E+00 0.00000000E+00
 3 49 0.00000000E+00 0.00000000E+00 0.00000000E+00 0.00000000E+00 0.00000000E+00
 3 50 0.00000000E+00 0.00000000E+00 0.00000000E+00 0.00000000E+00 0.00000000E+00
 3 51 0.00000000E+00 0.00000000E+00 0.00000000E+00 0.00000000E+00 0.00000000E+00
 3 52 0.00000000E+00 0.00000000E+00 0.00000000E+00 0.00000000E+00 0.00000000E+00
 3 53 0.00000000E+00 0.00000000E+00 0.00000000E+00 0.00000000E+00 0.00000000E+00
 3 54 0.00000000E+00 0.00000000E+00 0.00000000E+00 0.00000000E+00 0.00000000E+00
 3 55 0.00000000E+00 0.00000000E+00 0.00000000E+00 0.00000000E+00 0.00000000E+00
 3 56 0.00000000E+00 0.00000000E+00 0.00000000E+00 0.00000000E+00 0.00000000E+00
 3 57 0.00000000E+00 0.00000000E+00
 4  1 0.00000000E+00 0.00000000E+00 0.00000000E+00 0.00000000E+00 0.00000000E+00
 4  2 0.00000000E+00 0.00000000E+00 0.00000000E+00 0.00000000E+00 0.00000000E+00
 4  3 0.00000000E+00 0.00000000E+00 0.00000000E+00 0.00000000E+00 0.00000000E+00
 4  4 0.00000000E+00 0.00000000E+00 0.00000000E+00 0.00000000E+00 0.00000000E+00
 4  5 0.00000000E+00 0.00000000E+00 0.00000000E+00 0.00000000E+00 8.37060205E-08
 4  6 0.00000000E+00 0.00000000E+00 1.76964088E-07 0.00000000E+00 0.00000000E+00
 4  7 4.31614345E-06 0.00000000E+00 0.00000000E+00 4.10668672E-06 0.00000000E+00
 4  8 0.00000000E+00 6.55185728E-05 0.00000000E+00 0.00000000E+00 3.76368523E-05
 4  9 0.00000000E+00 0.00000000E+00 6.39994358E-04 0.00000000E+00 0.00000000E+00
 4 10-7.84308745E-04 0.00000000E+00 0.00000000E+00 1.15039242E-02 0.00000000E+00
 4 11 0.00000000E+00-3.04552084E-02 0.00000000E+00 0.00000000E+00-7.34415795E-02
 4 12 0.00000000E+00 0.00000000E+00 2.98895601E-02 0.00000000E+00 0.00000000E+00
 4 13 2.73096605E-01 0.00000000E+00 0.00000000E+00 4.17086621E-01 0.00000000E+00
 4 14 0.00000000E+00 3.16984988E-01 0.00000000E+00 0.00000000E+00 1.04450065E-01
 4 15 0.00000000E+00 0.00000000E+00 7.16025329E-03 0.00000000E+00 0.00000000E+00
 4 16 1.93556949E-04 0.00000000E+00 0.00000000E+00-5.80605284E-05 0.00000000E+00
 4 17 0.00000000E+00 2.17783109E-05 0.00000000E+00 0.00000000E+00 0.00000000E+00
 4 18 0.00000000E+00 0.00000000E+00 0.00000000E+00 0.00000000E+00 0.00000000E+00
 4 19 0.00000000E+00 0.00000000E+00 0.00000000E+00 0.00000000E+00 0.00000000E+00
 4 20 0.00000000E+00 0.00000000E+00 0.00000000E+00 0.00000000E+00 0.00000000E+00
 4 21 0.00000000E+00 0.00000000E+00 0.00000000E+00 0.00000000E+00 0.00000000E+00
 4 22 0.00000000E+00 0.00000000E+00 0.00000000E+00 0.00000000E+00 0.00000000E+00
 4 23 0.00000000E+00 0.00000000E+00 0.00000000E+00 0.00000000E+00 0.00000000E+00
 4 24 0.00000000E+00 0.00000000E+00 0.00000000E+00 0.00000000E+00 0.00000000E+00
 4 25 0.00000000E+00 0.00000000E+00 0.00000000E+00 0.00000000E+00 0.00000000E+00
 4 26 0.00000000E+00 0.00000000E+00 0.00000000E+00 0.00000000E+00 0.00000000E+00
 4 27 0.00000000E+00 0.00000000E+00 0.00000000E+00 0.00000000E+00 0.00000000E+00
 4 28 0.00000000E+00 0.00000000E+00 0.00000000E+00 0.00000000E+00 0.00000000E+00
 4 29 0.00000000E+00 0.00000000E+00 0.00000000E+00 0.00000000E+00 0.00000000E+00
 4 30 0.00000000E+00 0.00000000E+00 0.00000000E+00 0.00000000E+00 0.00000000E+00
 4 31 0.00000000E+00 0.00000000E+00 0.00000000E+00 0.00000000E+00 0.00000000E+00
 4 32 0.00000000E+00 0.00000000E+00 0.00000000E+00 0.00000000E+00 0.00000000E+00
 4 33 0.00000000E+00 0.00000000E+00 0.00000000E+00 0.00000000E+00 0.00000000E+00
 4 34 0.00000000E+00 0.00000000E+00 0.00000000E+00 0.00000000E+00 0.00000000E+00
 4 35 0.00000000E+00 0.00000000E+00 0.00000000E+00 0.00000000E+00 5.05936944E-05
 4 36 0.00000000E+00-3.39392820E-05 0.00000000E+00-3.39392820E-05 0.00000000E+00
 4 37 0.00000000E+00 0.00000000E+00 0.00000000E+00 0.00000000E+00-4.52115913E-05
 4 38 0.00000000E+00 3.03288575E-05 0.00000000E+00 3.03288575E-05 0.00000000E+00
 4 39 0.00000000E+00 0.00000000E+00 0.00000000E+00 0.00000000E+00 1.94292287E-03
 4 40 0.00000000E+00-1.30335228E-03 0.00000000E+00-1.30335228E-03 0.00000000E+00
 4 41 0.00000000E+00 0.00000000E+00 0.00000000E+00 0.00000000E+00 2.60498308E-03
 4 42 0.00000000E+00-1.74747577E-03 0.00000000E+00-1.74747577E-03 0.00000000E+00
 4 43 0.00000000E+00 0.00000000E+00 0.00000000E+00 0.00000000E+00 4.72373161E-04
 4 44 0.00000000E+00-3.16877550E-04 0.00000000E+00-3.16877550E-04 0.00000000E+00
 4 45 0.00000000E+00 0.00000000E+00 0.00000000E+00 0.00000000E+00 0.00000000E+00
 4 46 0.00000000E+00 0.00000000E+00 0.00000000E+00 0.00000000E+00 0.00000000E+00
 4 47 0.00000000E+00 0.00000000E+00 0.00000000E+00 0.00000000E+00 0.00000000E+00
 4 48 0.00000000E+00 0.00000000E+00 0.00000000E+00 0.00000000E+00 0.00000000E+00
 4 49 0.00000000E+00 0.00000000E+00 0.00000000E+00 0.00000000E+00 0.00000000E+00
 4 50 0.00000000E+00 0.00000000E+00 0.00000000E+00 0.00000000E+00 0.00000000E+00
 4 51 0.00000000E+00 0.00000000E+00 0.00000000E+00 0.00000000E+00 0.00000000E+00
 4 52 0.00000000E+00 0.00000000E+00 0.00000000E+00 0.00000000E+00 0.00000000E+00
 4 53 0.00000000E+00 0.00000000E+00 0.00000000E+00 0.00000000E+00 0.00000000E+00
 4 54 0.00000000E+00 0.00000000E+00 0.00000000E+00 0.00000000E+00 0.00000000E+00
 4 55 0.00000000E+00 0.00000000E+00 0.00000000E+00 0.00000000E+00 0.00000000E+00
 4 56 0.00000000E+00 0.00000000E+00 0.00000000E+00 0.00000000E+00 0.00000000E+00
 4 57 0.00000000E+00 0.00000000E+00
 5  1 0.00000000E+00 0.00000000E+00 0.00000000E+00 0.00000000E+00 0.00000000E+00
 5  2 0.00000000E+00 0.00000000E+00 0.00000000E+00 0.00000000E+00 0.00000000E+00
 5  3 0.00000000E+00 0.00000000E+00 0.00000000E+00 0.00000000E+00 0.00000000E+00
 5  4 0.00000000E+00 0.00000000E+00 0.00000000E+00 0.00000000E+00 0.00000000E+00
 5  5 0.00000000E+00 0.00000000E+00 0.00000000E+00 0.00000000E+00 0.00000000E+00
 5  6 0.00000000E+00 0.00000000E+00 0.00000000E+00 0.00000000E+00 0.00000000E+00
 5  7 0.00000000E+00 0.00000000E+00 0.00000000E+00 0.00000000E+00 0.00000000E+00
 5  8 0.00000000E+00 0.00000000E+00 0.00000000E+00 0.00000000E+00 0.00000000E+00
 5  9 0.00000000E+00 0.00000000E+00 0.00000000E+00 0.00000000E+00 0.00000000E+00
 5 10 0.00000000E+00 0.00000000E+00 0.00000000E+00 0.00000000E+00 0.00000000E+00
 5 11 0.00000000E+00 0.00000000E+00 0.00000000E+00 0.00000000E+00 0.00000000E+00
 5 12 0.00000000E+00 0.00000000E+00 0.00000000E+00 0.00000000E+00 0.00000000E+00
 5 13 0.00000000E+00 0.00000000E+00 0.00000000E+00 0.00000000E+00 0.00000000E+00
 5 14 0.00000000E+00 0.00000000E+00 0.00000000E+00 0.00000000E+00 0.00000000E+00
 5 15 0.00000000E+00 0.00000000E+00 0.00000000E+00 0.00000000E+00 0.00000000E+00
 5 16 0.00000000E+00 0.00000000E+00 0.00000000E+00 0.00000000E+00 0.00000000E+00
 5 17 0.00000000E+00 0.00000000E+00-6.77982452E-07 6.77982452E-07 0.00000000E+00
 5 18 0.00000000E+00 0.00000000E+00 0.00000000E+00 8.87515916E-06-8.87515916E-06
 5 19 0.00000000E+00 0.00000000E+00 0.00000000E+00 0.00000000E+00 2.41610291E-05
 5 20-2.41610291E-05 0.00000000E+00 0.00000000E+00 0.00000000E+00 0.00000000E+00
 5 21 9.75775692E-04-9.75775692E-04 0.00000000E+00 0.00000000E+00 0.00000000E+00
 5 22 0.00000000E+00 6.14597170E-03-6.14597170E-03 0.00000000E+00 0.00000000E+00
 5 23 0.00000000E+00 0.00000000E+00 2.41856683E-02-2.41856683E-02 0.00000000E+00
 5 24 0.00000000E+00 0.00000000E+00 0.00000000E+00 7.45683976E-02-7.45683976E-02
 5 25 0.00000000E+00 0.00000000E+00 0.00000000E+00 0.00000000E+00 1.52018822E-01
 5 26-1.52018822E-01 0.00000000E+00 0.00000000E+00 0.00000000E+00 0.00000000E+00
 5 27 2.34644116E-01-2.34644116E-01 0.00000000E+00 0.00000000E+00 0.00000000E+00
 5 28 0.00000000E+00 2.61228171E-01-2.61228171E-01 0.00000000E+00 0.00000000E+00
 5 29 0.00000000E+00 0.00000000E+00 2.27649201E-01-2.27649201E-01 0.00000000E+00
 5 30 0.00000000E+00 0.00000000E+00 0.00000000E+00 1.37609870E-01-1.37609870E-01
 5 31 0.00000000E+00 0.00000000E+00 0.00000000E+00 0.00000000E+00 5.28581017E-02
 5 32-5.28581017E-02 0.00000000E+00 0.00000000E+00 0.00000000E+00 0.00000000E+00
 5 33 8.04611752E-03-8.04611752E-03 0.00000000E+00 0.00000000E+00 0.00000000E+00
 5 34 0.00000000E+00-2.92587800E-05 2.92587800E-05 0.00000000E+00 0.00000000E+00
 5 35 0.00000000E+00 0.00000000E+00 0.00000000E+00 0.00000000E+00 0.00000000E+00
 5 36 0.00000000E+00 0.00000000E+00 0.00000000E+00 0.00000000E+00 0.00000000E+00
 5 37 0.00000000E+00 0.00000000E+00 0.00000000E+00 0.00000000E+00 0.00000000E+00
 5 38 0.00000000E+00 0.00000000E+00 0.00000000E+00 0.00000000E+00 0.00000000E+00
 5 39 0.00000000E+00 0.00000000E+00 0.00000000E+00 0.00000000E+00 0.00000000E+00
 5 40 0.00000000E+00 0.00000000E+00 0.00000000E+00 0.00000000E+00 0.00000000E+00
 5 41 0.00000000E+00 0.00000000E+00 0.00000000E+00 0.00000000E+00 0.00000000E+00
 5 42 0.00000000E+00 0.00000000E+00 0.00000000E+00 0.00000000E+00 0.00000000E+00
 5 43 0.00000000E+00 0.00000000E+00 0.00000000E+00 0.00000000E+00 0.00000000E+00
 5 44 0.00000000E+00 0.00000000E+00 0.00000000E+00 0.00000000E+00 0.00000000E+00
 5 45 0.00000000E+00 0.00000000E+00-9.29214035E-05 9.29214035E-05 0.00000000E+00
 5 46 0.00000000E+00 0.00000000E+00 0.00000000E+00 0.00000000E+00 0.00000000E+00
 5 47 0.00000000E+00 0.00000000E+00 1.63227608E-04-1.63227608E-04 0.00000000E+00
 5 48 0.00000000E+00 0.00000000E+00-5.51831303E-04 5.51831303E-04 0.00000000E+00
 5 49 0.00000000E+00 0.00000000E+00 0.00000000E+00 0.00000000E+00 0.00000000E+00
 5 50 0.00000000E+00 0.00000000E+00 9.69357976E-04-9.69357976E-04 0.00000000E+00
 5 51 0.00000000E+00 0.00000000E+00-6.36420909E-04 6.36420909E-04 0.00000000E+00
 5 52 0.00000000E+00 0.00000000E+00 0.00000000E+00 0.00000000E+00 0.00000000E+00
 5 53 0.00000000E+00 0.00000000E+00 1.11794978E-03-1.11794978E-03 0.00000000E+00
 5 54 0.00000000E+00 0.00000000E+00-2.15739021E-04 2.15739021E-04 0.00000000E+00
 5 55 0.00000000E+00 0.00000000E+00 0.00000000E+00 0.00000000E+00 0.00000000E+00
 5 56 0.00000000E+00 0.00000000E+00 3.78971507E-04-3.78971507E-04 0.00000000E+00
 5 57 0.00000000E+00 0.00000000E+00
 6  1 0.00000000E+00-4.59149913E-11-1.46332758E-09-1.80076348E-08-9.93523163E-08
 6  2-3.60493884E-07-1.11583866E-06-1.22373937E-06-5.38486618E-06 3.83784753E-05
 6  3-2.69494530E-04 2.13773713E-04 1.00874117E-03 2.35260735E-04-1.19546804E-03
 6  4-3.08062953E-03-4.58180779E-03 4.06758992E-03 1.15103157E-02 4.58735421E-03
 6  5-9.35548260E-06 2.46840753E-05 0.00000000E+00 0.00000000E+00 0.00000000E+00
 6  6 0.00000000E+00 0.00000000E+00 0.00000000E+00 0.00000000E+00 0.00000000E+00
 6  7 0.00000000E+00 0.00000000E+00 0.00000000E+00 0.00000000E+00 0.00000000E+00
 6  8 0.00000000E+00 0.00000000E+00 0.00000000E+00 0.00000000E+00 0.00000000E+00
 6  9 0.00000000E+00 0.00000000E+00 0.00000000E+00 0.00000000E+00 0.00000000E+00
 6 10 0.00000000E+00 0.00000000E+00 0.00000000E+00 0.00000000E+00 0.00000000E+00
 6 11 0.00000000E+00 0.00000000E+00 0.00000000E+00 0.00000000E+00 0.00000000E+00
 6 12 0.00000000E+00 0.00000000E+00 0.00000000E+00 0.00000000E+00 0.00000000E+00
 6 13 0.00000000E+00 0.00000000E+00 0.00000000E+00 0.00000000E+00 0.00000000E+00
 6 14 0.00000000E+00 0.00000000E+00 0.00000000E+00 0.00000000E+00 0.00000000E+00
 6 15 0.00000000E+00 0.00000000E+00 0.00000000E+00 0.00000000E+00 0.00000000E+00
 6 16 0.00000000E+00 0.00000000E+00 0.00000000E+00 0.00000000E+00 0.00000000E+00
 6 17 0.00000000E+00 0.00000000E+00 4.01848777E-07 4.01848777E-07-8.03697554E-07
 6 18 0.00000000E+00 0.00000000E+00 0.00000000E+00-5.25813541E-06-5.25813541E-06
 6 19 1.05162708E-05 0.00000000E+00 0.00000000E+00 0.00000000E+00-1.42984902E-05
 6 20-1.42984902E-05 2.85969804E-05 0.00000000E+00 0.00000000E+00 0.00000000E+00
 6 21-5.77877468E-04-5.77877468E-04 1.15575494E-03 0.00000000E+00 0.00000000E+00
 6 22 0.00000000E+00-3.63716740E-03-3.63716740E-03 7.27433480E-03 0.00000000E+00
 6 23 0.00000000E+00 0.00000000E+00-1.43115163E-02-1.43115163E-02 2.86230326E-02
 6 24 0.00000000E+00 0.00000000E+00 0.00000000E+00-4.40847075E-02-4.40847075E-02
 6 25 8.81694150E-02 0.00000000E+00 0.00000000E+00 0.00000000E+00-9.03366622E-02
 6 26-9.03366622E-02 1.80673324E-01 0.00000000E+00 0.00000000E+00 0.00000000E+00
 6 27-1.40503947E-01-1.40503947E-01 2.81007894E-01 0.00000000E+00 0.00000000E+00
 6 28 0.00000000E+00-1.55535004E-01-1.55535004E-01 3.11070007E-01 0.00000000E+00
 6 29 0.00000000E+00 0.00000000E+00-1.29545503E-01-1.29545503E-01 2.59091006E-01
 6 30 0.00000000E+00 0.00000000E+00 0.00000000E+00-7.02733152E-02-7.02733152E-02
 6 31 1.40546630E-01 0.00000000E+00 0.00000000E+00 0.00000000E+00-2.18592984E-02
 6 32-2.18592984E-02 4.37185967E-02 0.00000000E+00 0.00000000E+00 0.00000000E+00
 6 33-2.23742490E-03-2.23742490E-03 4.47484980E-03 0.00000000E+00 0.00000000E+00
 6 34 0.00000000E+00 5.41762532E-06 5.41762532E-06-1.08352506E-05 0.00000000E+00
 6 35 0.00000000E+00 0.00000000E+00 0.00000000E+00 0.00000000E+00 0.00000000E+00
 6 36 0.00000000E+00 0.00000000E+00 0.00000000E+00 0.00000000E+00 0.00000000E+00
 6 37 0.00000000E+00 0.00000000E+00 0.00000000E+00 0.00000000E+00 0.00000000E+00
 6 38 0.00000000E+00 0.00000000E+00 0.00000000E+00 0.00000000E+00 0.00000000E+00
 6 39 0.00000000E+00 0.00000000E+00 0.00000000E+00 0.00000000E+00 0.00000000E+00
 6 40 0.00000000E+00 0.00000000E+00 0.00000000E+00 0.00000000E+00 0.00000000E+00
 6 41 0.00000000E+00 0.00000000E+00 0.00000000E+00 0.00000000E+00 0.00000000E+00
 6 42 0.00000000E+00 0.00000000E+00 0.00000000E+00 0.00000000E+00 0.00000000E+00
 6 43 0.00000000E+00 0.00000000E+00 0.00000000E+00 0.00000000E+00 0.00000000E+00
 6 44 0.00000000E+00 0.00000000E+00 0.00000000E+00 0.00000000E+00 0.00000000E+00
 6 45 0.00000000E+00 0.00000000E+00 1.49947471E-04 1.49947471E-04 3.85076926E-04
 6 46 0.00000000E+00 0.00000000E+00 0.00000000E+00 0.00000000E+00 0.00000000E+00
 6 47 0.00000000E+00 7.48161940E-05-3.38216940E-04-3.38216940E-04 0.00000000E+00
 6 48 0.00000000E+00 0.00000000E+00 1.48021806E-03 1.48021806E-03 2.30774239E-03