 $CONTRL 
     SCFTYP=ROHF
     MULT=3 
     ICHARG=0 
     RUNTYP=ENERGY 
     MAXIT=150 
     PP=READ
 $END

 $CONTRL 
     ISPHER=1 
 $END

 $SYSTEM 
     KDIAG=3
     mwords=125 
 $END

 $GUESS
    GUESS=HUCKEL
 $END

 $DATA  
                                                                                
C1
Si 14 0. 0. 0.
s  10
1  73.28107903  -0.000049 
2  33.32468352  0.000247  
3  15.15445114  -0.000773 
4  6.89150999   0.001491  
5  3.13392478   0.040107 
6  1.42515712   -0.280533 
7  0.64809239   -0.037926 
8  0.29472101   0.452751  
9  0.13402483   0.553855  
10 0.06094800   0.181179 
s  1
1  0.568798    1.000000  
s  1
1  0.254303    1.000000 
s  1
1  0.113696    1.000000 
s  1
1  0.050832    1.000000
p  10
1  24.59158468  0.000059 
2  11.96715628  -0.000277 
3  5.82365192   0.001636 
4  2.83400007   -0.001433
5  1.37912713   -0.056507
6  0.67113324   0.074555 
7  0.32659776   0.277896 
8  0.15893430   0.411768 
9  0.07734319   0.306844 
10 0.03763800   0.085952
p  1
1  0.718718   1.000000 
p  1
1  0.299011   1.000000 
p  1
1  0.124399   1.000000 
p  1
1  0.051754   1.000000
d  1
1  1.712452   1.000000 
d  1
1  0.693546   1.000000 
d  1
1  0.280887   1.000000 
d  1
1  0.11376    1.000000 
f  1
1  0.722524   1.000000 
f  1
1  0.349507   1.000000 
f  1
1  0.169067   1.000000
g  1
1  0.736152   1.000000 
g  1
1  0.286976   1.000000

 $END

 $ECP
Si-QMC GEN 10 2
3
4.00000000    1 3.546322177061 
14.18528871   3 4.102573460096 
-14.55031990  2 3.031897830052 
2
6.03326125    2 7.405409672817 
23.08201380   2 2.387412202799 
2
3.34088948    2 2.175236253629 
10.10971550   2 1.940787337859 

 $END

