 $CONTRL 
     SCFTYP=ROHF
     MULT=5
     ICHARG=0
     RUNTYP=ENERGY 
     MAXIT=150 
     PP=READ
 $END

 $CONTRL 
     ISPHER=1 
 $END

 $SYSTEM 
     KDIAG=3
     mwords=125 
 $END

 $GUESS
    GUESS=MOREAD
    NORB=198
    NORDER=1
    IORDER(5)=10,5,6,7,8,9
 $END

 $DATA  
                                                                                
C1
Fe 26 0. 0. 0.
S    1
  1   22134.61215      1.000000 
S    1
  1    4426.92243      1.000000 
S    1
  1    1264.83498      1.000000 
S    1
  1     421.61166      1.000000 
S    1
  1     168.64466      1.000000 
S    1
  1     84.322332      1.000000 
S    1
  1     44.203528      1.000000 
S    1
  1     23.288963      1.000000 
S    1
  1     13.385163      1.000000 
S    1
  1      7.518052      1.000000 
S    1
  1      4.101835      1.000000 
S    1
  1      2.253571      1.000000 
S    1
  1      1.134924      1.000000 
S    1
  1      0.561550      1.000000 
S    1
  1      0.201961      1.000000 
S    1
  1      0.108698      1.000000 
S    1
  1      0.053619      1.000000 
S    1
  1      0.025823      1.000000 
S    1
  1      0.012         1.000000
P    1
  1    547.731484     1.000000 
P    1
  1    258.056168     1.000000 
P    1
  1    125.092775     1.000000 
P    1
  1     65.211589     1.000000 
P    1
  1     34.437599     1.000000 
P    1
  1     18.930704     1.000000 
P    1
  1     10.873415     1.000000 
P    1
  1     6.012172      1.000000 
P    1
  1     3.372205      1.000000 
P    1
  1     1.768641      1.000000 
P    1
  1     0.914516      1.000000 
P    1
  1     0.460895      1.000000 
P    1
  1     0.204490      1.000000 
P    1
  1     0.074741      1.000000 
P    1
  1     0.035671      1.000000 
P    1
  1     0.017         1.000000
D    1
  1    152.736742     1.000000 
D    1
  1     50.772485     1.000000 
D    1
  1     26.253589     1.000000 
D    1
  1     12.137022     1.000000 
D    1
  1     5.853719      1.000000 
D    1
  1     2.856224      1.000000 
D    1
  1     1.386132      1.000000 
D    1
  1     0.670802      1.000000 
D    1
  1     0.330280      1.000000 
D    1
  1     0.170907      1.000000 
D    1
  1     0.086794      1.000000 
D    1
  1     0.04          1.000000
F    1
  1     0.115778      1.000000 
F    1
  1     0.334367      1.000000
F    1
  1     0.96565       1.000000
F    1
  1     2.788793      1.000000
F    1
  1     8.05402       1.000000 
G    1
  1     0.227726      1.000000
G    1
  1     0.673444      1.000000
G    1
  1     1.99155       1.000000
G    1
  1     5.889532      1.000000

 $END

 $ECP
Fe-STU GEN 10 3
1
0.000000    2 1.000000  
2
253.749588  2 20.930000 
37.922845   2 9.445000  
2
161.036812  2 21.760000 
27.651298   2 9.178000  
2
-24.431276  2 25.900000 
-1.434251   2 8.835000  

 $END


 $VEC   
 1  1 7.32664022E-06 3.60518373E-05 1.38033883E-04 3.93032282E-04 5.40237567E-04
 1  2 1.52007373E-03-1.32364713E-02 1.16279161E-01-1.43252229E-01-3.32779476E-01
 1  3-3.76398130E-02 4.82605285E-01 5.86508158E-01 1.94191138E-01 8.22632772E-03
 1  4-3.64597176E-04 1.33506787E-03-2.41546755E-04 5.72801859E-05-0.00000000E+00
 1  5-0.00000000E+00-0.00000000E+00-0.00000000E+00-0.00000000E+00-0.00000000E+00
 1  6-0.00000000E+00-0.00000000E+00-0.00000000E+00-0.00000000E+00-0.00000000E+00
 1  7-0.00000000E+00-0.00000000E+00-0.00000000E+00-0.00000000E+00-0.00000000E+00
 1  8-0.00000000E+00-0.00000000E+00-0.00000000E+00-0.00000000E+00-0.00000000E+00
 1  9-0.00000000E+00-0.00000000E+00-0.00000000E+00-0.00000000E+00-0.00000000E+00
 1 10-0.00000000E+00-0.00000000E+00-0.00000000E+00-0.00000000E+00-0.00000000E+00
 1 11-0.00000000E+00-0.00000000E+00-0.00000000E+00-0.00000000E+00-0.00000000E+00
 1 12-0.00000000E+00-0.00000000E+00-0.00000000E+00-0.00000000E+00-0.00000000E+00
 1 13-0.00000000E+00-0.00000000E+00-0.00000000E+00-0.00000000E+00-0.00000000E+00
 1 14-0.00000000E+00-0.00000000E+00 4.77086432E-07 4.77086432E-07-9.54172865E-07
 1 15-0.00000000E+00-0.00000000E+00-0.00000000E+00 4.66345621E-06 4.66345621E-06
 1 16-9.32691242E-06-0.00000000E+00-0.00000000E+00-0.00000000E+00 9.22485608E-06
 1 17 9.22485608E-06-1.84497122E-05-0.00000000E+00-0.00000000E+00-0.00000000E+00
 1 18 1.01187682E-04 1.01187682E-04-2.02375365E-04-0.00000000E+00-0.00000000E+00
 1 19-0.00000000E+00 6.02235130E-05 6.02235130E-05-1.20447026E-04-0.00000000E+00
 1 20-0.00000000E+00-0.00000000E+00-4.97807446E-04-4.97807446E-04 9.95614892E-04
 1 21-0.00000000E+00-0.00000000E+00-0.00000000E+00-6.49324011E-05-6.49324011E-05
 1 22 1.29864802E-04-0.00000000E+00-0.00000000E+00-0.00000000E+00 9.43985688E-04
 1 23 9.43985688E-04-1.88797138E-03-0.00000000E+00-0.00000000E+00-0.00000000E+00
 1 24 6.12702912E-04 6.12702912E-04-1.22540582E-03-0.00000000E+00-0.00000000E+00
 1 25-0.00000000E+00 1.76432560E-04 1.76432560E-04-3.52865120E-04-0.00000000E+00
 1 26-0.00000000E+00-0.00000000E+00 1.13813196E-05 1.13813196E-05-2.27626392E-05
 1 27-0.00000000E+00-0.00000000E+00-0.00000000E+00 4.34931478E-07 4.34931478E-07
 1 28-8.69862956E-07-0.00000000E+00-0.00000000E+00-0.00000000E+00-0.00000000E+00
 1 29-0.00000000E+00-0.00000000E+00-0.00000000E+00-0.00000000E+00-0.00000000E+00
 1 30-0.00000000E+00-0.00000000E+00-0.00000000E+00-0.00000000E+00-0.00000000E+00
 1 31-0.00000000E+00-0.00000000E+00-0.00000000E+00-0.00000000E+00-0.00000000E+00
 1 32-0.00000000E+00-0.00000000E+00-0.00000000E+00-0.00000000E+00-0.00000000E+00
 1 33-0.00000000E+00-0.00000000E+00-0.00000000E+00-0.00000000E+00-0.00000000E+00
 1 34-0.00000000E+00-0.00000000E+00-0.00000000E+00-0.00000000E+00-0.00000000E+00
 1 35-0.00000000E+00-0.00000000E+00-0.00000000E+00-0.00000000E+00-0.00000000E+00
 1 36-0.00000000E+00-0.00000000E+00-0.00000000E+00-0.00000000E+00-0.00000000E+00
 1 37-0.00000000E+00-0.00000000E+00-0.00000000E+00-0.00000000E+00-0.00000000E+00
 1 38-0.00000000E+00-0.00000000E+00-0.00000000E+00-0.00000000E+00-8.49242213E-06
 1 39-8.49242213E-06-4.49703445E-06-0.00000000E+00-0.00000000E+00-0.00000000E+00
 1 40-0.00000000E+00-0.00000000E+00-0.00000000E+00 1.09681690E-05 3.94979062E-06
 1 41 3.94979062E-06-0.00000000E+00-0.00000000E+00-0.00000000E+00 4.20955924E-04
 1 42 4.20955924E-04 7.39510408E-05-0.00000000E+00-0.00000000E+00-0.00000000E+00
 1 43-0.00000000E+00-0.00000000E+00-0.00000000E+00-6.74507708E-04-6.49519435E-05
 1 44-6.49519435E-05-0.00000000E+00-0.00000000E+00-0.00000000E+00 4.08794906E-04
 1 45 4.08794906E-04 7.97398735E-05-0.00000000E+00-0.00000000E+00-0.00000000E+00
 1 46-0.00000000E+00-0.00000000E+00-0.00000000E+00-6.48061028E-04-7.00363336E-05
 1 47-7.00363336E-05-0.00000000E+00-0.00000000E+00-0.00000000E+00 1.64396097E-04
 1 48 1.64396097E-04 3.44528157E-05-0.00000000E+00-0.00000000E+00-0.00000000E+00
 1 49-0.00000000E+00-0.00000000E+00-0.00000000E+00-2.58521239E-04-3.02602549E-05
 1 50-3.02602549E-05-0.00000000E+00-0.00000000E+00-0.00000000E+00
 2  1 0.00000000E+00 0.00000000E+00 0.00000000E+00 0.00000000E+00 0.00000000E+00
 2  2 0.00000000E+00 0.00000000E+00 0.00000000E+00 0.00000000E+00 0.00000000E+00
 2  3 0.00000000E+00 0.00000000E+00 0.00000000E+00 0.00000000E+00 0.00000000E+00
 2  4 0.00000000E+00 0.00000000E+00 0.00000000E+00 0.00000000E+00 8.40571015E-05
 2  5 0.00000000E+00 0.00000000E+00 5.27053268E-06 0.00000000E+00 0.00000000E+00
 2  6 6.86596007E-04 0.00000000E+00 0.00000000E+00-8.43238300E-04 0.00000000E+00
 2  7 0.00000000E+00 1.15717864E-02 0.00000000E+00 0.00000000E+00-3.06159574E-02
 2  8 0.00000000E+00 0.00000000E+00-7.31455217E-02 0.00000000E+00 0.00000000E+00
 2  9 3.03230786E-02 0.00000000E+00 0.00000000E+00 2.72728327E-01 0.00000000E+00
 2 10 0.00000000E+00 4.14965687E-01 0.00000000E+00 0.00000000E+00 3.16664513E-01
 2 11 0.00000000E+00 0.00000000E+00 1.07124192E-01 0.00000000E+00 0.00000000E+00
 2 12 8.13319055E-03 0.00000000E+00 0.00000000E+00 1.62412991E-04 0.00000000E+00
 2 13 0.00000000E+00-2.75210578E-05 0.00000000E+00 0.00000000E+00 1.17797142E-05
 2 14 0.00000000E+00 0.00000000E+00 0.00000000E+00 0.00000000E+00 0.00000000E+00
 2 15 0.00000000E+00 0.00000000E+00 0.00000000E+00 0.00000000E+00 0.00000000E+00
 2 16 0.00000000E+00 0.00000000E+00 0.00000000E+00 0.00000000E+00 0.00000000E+00
 2 17 0.00000000E+00 0.00000000E+00 0.00000000E+00 0.00000000E+00 0.00000000E+00
 2 18 0.00000000E+00 0.00000000E+00 0.00000000E+00 0.00000000E+00 0.00000000E+00
 2 19 0.00000000E+00 0.00000000E+00 0.00000000E+00 0.00000000E+00 0.00000000E+00
 2 20 0.00000000E+00 0.00000000E+00 0.00000000E+00 0.00000000E+00 0.00000000E+00
 2 21 0.00000000E+00 0.00000000E+00 0.00000000E+00 0.00000000E+00 0.00000000E+00
 2 22 0.00000000E+00 0.00000000E+00 0.00000000E+00 0.00000000E+00 0.00000000E+00
 2 23 0.00000000E+00 0.00000000E+00 0.00000000E+00 0.00000000E+00 0.00000000E+00
 2 24 0.00000000E+00 0.00000000E+00 0.00000000E+00 0.00000000E+00 0.00000000E+00
 2 25 0.00000000E+00 0.00000000E+00 0.00000000E+00 0.00000000E+00 0.00000000E+00
 2 26 0.00000000E+00 0.00000000E+00 0.00000000E+00 0.00000000E+00 0.00000000E+00
 2 27 0.00000000E+00 0.00000000E+00 0.00000000E+00 0.00000000E+00 0.00000000E+00
 2 28 0.00000000E+00 0.00000000E+00 0.00000000E+00 0.00000000E+00-2.90989699E-05
 2 29 0.00000000E+00 0.00000000E+00 0.00000000E+00 0.00000000E+00-6.71956116E-06
 2 30 0.00000000E+00 4.57599260E-05 0.00000000E+00 0.00000000E+00 1.06660414E-03
 2 31 0.00000000E+00 0.00000000E+00 0.00000000E+00 0.00000000E+00-1.08230147E-03
 2 32 0.00000000E+00-3.48698144E-04 0.00000000E+00 0.00000000E+00 2.33364991E-03
 2 33 0.00000000E+00 0.00000000E+00 0.00000000E+00 0.00000000E+00-3.88372817E-03
 2 34 0.00000000E+00 7.52808268E-04 0.00000000E+00 0.00000000E+00 1.16802894E-03
 2 35 0.00000000E+00 0.00000000E+00 0.00000000E+00 0.00000000E+00-3.15325492E-03
 2 36 0.00000000E+00 1.58617967E-03 0.00000000E+00 0.00000000E+00 5.66373378E-04
 2 37 0.00000000E+00 0.00000000E+00 0.00000000E+00 0.00000000E+00-9.42259566E-04
 2 38 0.00000000E+00 1.82389942E-04 0.00000000E+00 0.00000000E+00 0.00000000E+00
 2 39 0.00000000E+00 0.00000000E+00 0.00000000E+00 0.00000000E+00 0.00000000E+00
 2 40 0.00000000E+00 0.00000000E+00 0.00000000E+00 0.00000000E+00 0.00000000E+00
 2 41 0.00000000E+00 0.00000000E+00 0.00000000E+00 0.00000000E+00 0.00000000E+00
 2 42 0.00000000E+00 0.00000000E+00 0.00000000E+00 0.00000000E+00 0.00000000E+00
 2 43 0.00000000E+00 0.00000000E+00 0.00000000E+00 0.00000000E+00 0.00000000E+00
 2 44 0.00000000E+00 0.00000000E+00 0.00000000E+00 0.00000000E+00 0.00000000E+00
 2 45 0.00000000E+00 0.00000000E+00 0.00000000E+00 0.00000000E+00 0.00000000E+00
 2 46 0.00000000E+00 0.00000000E+00 0.00000000E+00 0.00000000E+00 0.00000000E+00
 2 47 0.00000000E+00 0.00000000E+00 0.00000000E+00 0.00000000E+00 0.00000000E+00
 2 48 0.00000000E+00 0.00000000E+00 0.00000000E+00 0.00000000E+00 0.00000000E+00
 2 49 0.00000000E+00 0.00000000E+00 0.00000000E+00 0.00000000E+00 0.00000000E+00
 2 50 0.00000000E+00 0.00000000E+00 0.00000000E+00 0.00000000E+00
 3  1 0.00000000E+00 0.00000000E+00 0.00000000E+00 0.00000000E+00 0.00000000E+00
 3  2 0.00000000E+00 0.00000000E+00 0.00000000E+00 0.00000000E+00 0.00000000E+00
 3  3 0.00000000E+00 0.00000000E+00 0.00000000E+00 0.00000000E+00 0.00000000E+00
 3  4 0.00000000E+00 0.00000000E+00 0.00000000E+00 0.00000000E+00 0.00000000E+00
 3  5 8.40571015E-05 0.00000000E+00 0.00000000E+00 5.27053267E-06 0.00000000E+00
 3  6 0.00000000E+00 6.86596008E-04 0.00000000E+00 0.00000000E+00-8.43238300E-04
 3  7 0.00000000E+00 0.00000000E+00 1.15717864E-02 0.00000000E+00 0.00000000E+00
 3  8-3.06159574E-02 0.00000000E+00 0.00000000E+00-7.31455217E-02 0.00000000E+00
 3  9 0.00000000E+00 3.03230786E-02 0.00000000E+00 0.00000000E+00 2.72728327E-01
 3 10 0.00000000E+00 0.00000000E+00 4.14965687E-01 0.00000000E+00 0.00000000E+00
 3 11 3.16664513E-01 0.00000000E+00 0.00000000E+00 1.07124192E-01 0.00000000E+00
 3 12 0.00000000E+00 8.13319055E-03 0.00000000E+00 0.00000000E+00 1.62412991E-04
 3 13 0.00000000E+00 0.00000000E+00-2.75210578E-05 0.00000000E+00 0.00000000E+00
 3 14 1.17797142E-05 0.00000000E+00 0.00000000E+00 0.00000000E+00 0.00000000E+00
 3 15 0.00000000E+00 0.00000000E+00 0.00000000E+00 0.00000000E+00 0.00000000E+00
 3 16 0.00000000E+00 0.00000000E+00 0.00000000E+00 0.00000000E+00 0.00000000E+00
 3 17 0.00000000E+00 0.00000000E+00 0.00000000E+00 0.00000000E+00 0.00000000E+00
 3 18 0.00000000E+00 0.00000000E+00 0.00000000E+00 0.00000000E+00 0.00000000E+00
 3 19 0.00000000E+00 0.00000000E+00 0.00000000E+00 0.00000000E+00 0.00000000E+00
 3 20 0.00000000E+00 0.00000000E+00 0.00000000E+00 0.00000000E+00 0.00000000E+00
 3 21 0.00000000E+00 0.00000000E+00 0.00000000E+00 0.00000000E+00 0.00000000E+00
 3 22 0.00000000E+00 0.00000000E+00 0.00000000E+00 0.00000000E+00 0.00000000E+00
 3 23 0.00000000E+00 0.00000000E+00 0.00000000E+00 0.00000000E+00 0.00000000E+00
 3 24 0.00000000E+00 0.00000000E+00 0.00000000E+00 0.00000000E+00 0.00000000E+00
 3 25 0.00000000E+00 0.00000000E+00 0.00000000E+00 0.00000000E+00 0.00000000E+00
 3 26 0.00000000E+00 0.00000000E+00 0.00000000E+00 0.00000000E+00 0.00000000E+00
 3 27 0.00000000E+00 0.00000000E+00 0.00000000E+00 0.00000000E+00 0.00000000E+00
 3 28 0.00000000E+00 0.00000000E+00 0.00000000E+00 0.00000000E+00 0.00000000E+00
 3 29-2.90989699E-05 0.00000000E+00-6.71956116E-06 0.00000000E+00 0.00000000E+00
 3 30 0.00000000E+00 0.00000000E+00 4.57599260E-05 0.00000000E+00 0.00000000E+00
 3 31 1.06660414E-03 0.00000000E+00-1.08230147E-03 0.00000000E+00 0.00000000E+00
 3 32 0.00000000E+00 0.00000000E+00-3.48698144E-04 0.00000000E+00 0.00000000E+00
 3 33 2.33364991E-03 0.00000000E+00-3.88372817E-03 0.00000000E+00 0.00000000E+00
 3 34 0.00000000E+00 0.00000000E+00 7.52808268E-04 0.00000000E+00 0.00000000E+00
 3 35 1.16802894E-03 0.00000000E+00-3.15325492E-03 0.00000000E+00 0.00000000E+00
 3 36 0.00000000E+00 0.00000000E+00 1.58617967E-03 0.00000000E+00 0.00000000E+00
 3 37 5.66373378E-04 0.00000000E+00-9.42259566E-04 0.00000000E+00 0.00000000E+00
 3 38 0.00000000E+00 0.00000000E+00 1.82389942E-04 0.00000000E+00 0.00000000E+00
 3 39 0.00000000E+00 0.00000000E+00 0.00000000E+00 0.00000000E+00 0.00000000E+00
 3 40 0.00000000E+00 0.00000000E+00 0.00000000E+00 0.00000000E+00 0.00000000E+00
 3 41 0.00000000E+00 0.00000000E+00 0.00000000E+00 0.00000000E+00 0.00000000E+00
 3 42 0.00000000E+00 0.00000000E+00 0.00000000E+00 0.00000000E+00 0.00000000E+00
 3 43 0.00000000E+00 0.00000000E+00 0.00000000E+00 0.00000000E+00 0.00000000E+00
 3 44 0.00000000E+00 0.00000000E+00 0.00000000E+00 0.00000000E+00 0.00000000E+00
 3 45 0.00000000E+00 0.00000000E+00 0.00000000E+00 0.00000000E+00 0.00000000E+00
 3 46 0.00000000E+00 0.00000000E+00 0.00000000E+00 0.00000000E+00 0.00000000E+00
 3 47 0.00000000E+00 0.00000000E+00 0.00000000E+00 0.00000000E+00 0.00000000E+00
 3 48 0.00000000E+00 0.00000000E+00 0.00000000E+00 0.00000000E+00 0.00000000E+00
 3 49 0.00000000E+00 0.00000000E+00 0.00000000E+00 0.00000000E+00 0.00000000E+00
 3 50 0.00000000E+00 0.00000000E+00 0.00000000E+00 0.00000000E+00
 4  1-0.00000000E+00-0.00000000E+00-0.00000000E+00-0.00000000E+00-0.00000000E+00
 4  2-0.00000000E+00-0.00000000E+00-0.00000000E+00-0.00000000E+00-0.00000000E+00
 4  3-0.00000000E+00-0.00000000E+00-0.00000000E+00-0.00000000E+00-0.00000000E+00
 4  4-0.00000000E+00-0.00000000E+00-0.00000000E+00-0.00000000E+00-0.00000000E+00
 4  5-0.00000000E+00 8.40447649E-05-0.00000000E+00-0.00000000E+00 5.13281779E-06
 4  6-0.00000000E+00-0.00000000E+00 6.86948201E-04-0.00000000E+00-0.00000000E+00
 4  7-8.45893318E-04-0.00000000E+00-0.00000000E+00 1.15797059E-02-0.00000000E+00
 4  8-0.00000000E+00-3.05447800E-02-0.00000000E+00-0.00000000E+00-7.33522663E-02
 4  9-0.00000000E+00-0.00000000E+00 2.98123413E-02-0.00000000E+00-0.00000000E+00
 4 10 2.73156589E-01-0.00000000E+00-0.00000000E+00 4.17045641E-01-0.00000000E+00
 4 11-0.00000000E+00 3.17012084E-01-0.00000000E+00-0.00000000E+00 1.04434738E-01
 4 12-0.00000000E+00-0.00000000E+00 7.16718449E-03-0.00000000E+00-0.00000000E+00
 4 13 1.89716296E-04-0.00000000E+00-0.00000000E+00-5.55791179E-05-0.00000000E+00
 4 14-0.00000000E+00 2.09643837E-05-0.00000000E+00-0.00000000E+00-0.00000000E+00
 4 15-0.00000000E+00-0.00000000E+00-0.00000000E+00-0.00000000E+00-0.00000000E+00
 4 16-0.00000000E+00-0.00000000E+00-0.00000000E+00-0.00000000E+00-0.00000000E+00
 4 17-0.00000000E+00-0.00000000E+00-0.00000000E+00-0.00000000E+00-0.00000000E+00
 4 18-0.00000000E+00-0.00000000E+00-0.00000000E+00-0.00000000E+00-0.00000000E+00
 4 19-0.00000000E+00-0.00000000E+00-0.00000000E+00-0.00000000E+00-0.00000000E+00
 4 20-0.00000000E+00-0.00000000E+00-0.00000000E+00-0.00000000E+00-0.00000000E+00
 4 21-0.00000000E+00-0.00000000E+00-0.00000000E+00-0.00000000E+00-0.00000000E+00
 4 22-0.00000000E+00-0.00000000E+00-0.00000000E+00-0.00000000E+00-0.00000000E+00
 4 23-0.00000000E+00-0.00000000E+00-0.00000000E+00-0.00000000E+00-0.00000000E+00
 4 24-0.00000000E+00-0.00000000E+00-0.00000000E+00-0.00000000E+00-0.00000000E+00
 4 25-0.00000000E+00-0.00000000E+00-0.00000000E+00-0.00000000E+00-0.00000000E+00
 4 26-0.00000000E+00-0.00000000E+00-0.00000000E+00-0.00000000E+00-0.00000000E+00
 4 27-0.00000000E+00-0.00000000E+00-0.00000000E+00-0.00000000E+00-0.00000000E+00
 4 28-0.00000000E+00-0.00000000E+00-0.00000000E+00-0.00000000E+00-0.00000000E+00
 4 29-0.00000000E+00 5.05937862E-05-0.00000000E+00-3.39393436E-05-0.00000000E+00
 4 30-3.39393436E-05-0.00000000E+00-0.00000000E+00-0.00000000E+00-0.00000000E+00
 4 31-0.00000000E+00-4.52119097E-05-0.00000000E+00 3.03290710E-05-0.00000000E+00
 4 32 3.03290710E-05-0.00000000E+00-0.00000000E+00-0.00000000E+00-0.00000000E+00
 4 33-0.00000000E+00 1.94292223E-03-0.00000000E+00-1.30335185E-03-0.00000000E+00
 4 34-1.30335185E-03-0.00000000E+00-0.00000000E+00-0.00000000E+00-0.00000000E+00
 4 35-0.00000000E+00 2.60498264E-03-0.00000000E+00-1.74747548E-03-0.00000000E+00
 4 36-1.74747548E-03-0.00000000E+00-0.00000000E+00-0.00000000E+00-0.00000000E+00
 4 37-0.00000000E+00 4.72372371E-04-0.00000000E+00-3.16877020E-04-0.00000000E+00
 4 38-3.16877020E-04-0.00000000E+00-0.00000000E+00-0.00000000E+00-0.00000000E+00
 4 39-0.00000000E+00-0.00000000E+00-0.00000000E+00-0.00000000E+00-0.00000000E+00
 4 40-0.00000000E+00-0.00000000E+00-0.00000000E+00-0.00000000E+00-0.00000000E+00
 4 41-0.00000000E+00-0.00000000E+00-0.00000000E+00-0.00000000E+00-0.00000000E+00
 4 42-0.00000000E+00-0.00000000E+00-0.00000000E+00-0.00000000E+00-0.00000000E+00
 4 43-0.00000000E+00-0.00000000E+00-0.00000000E+00-0.00000000E+00-0.00000000E+00
 4 44-0.00000000E+00-0.00000000E+00-0.00000000E+00-0.00000000E+00-0.00000000E+00
 4 45-0.00000000E+00-0.00000000E+00-0.00000000E+00-0.00000000E+00-0.00000000E+00
 4 46-0.00000000E+00-0.00000000E+00-0.00000000E+00-0.00000000E+00-0.00000000E+00
 4 47-0.00000000E+00-0.00000000E+00-0.00000000E+00-0.00000000E+00-0.00000000E+00
 4 48-0.00000000E+00-0.00000000E+00-0.00000000E+00-0.00000000E+00-0.00000000E+00
 4 49-0.00000000E+00-0.00000000E+00-0.00000000E+00-0.00000000E+00-0.00000000E+00
 4 50-0.00000000E+00-0.00000000E+00-0.00000000E+00-0.00000000E+00
 5  1 0.00000000E+00 0.00000000E+00 0.00000000E+00 0.00000000E+00 0.00000000E+00
 5  2 0.00000000E+00 0.00000000E+00 0.00000000E+00 0.00000000E+00 0.00000000E+00
 5  3 0.00000000E+00 0.00000000E+00 0.00000000E+00 0.00000000E+00 0.00000000E+00
 5  4 0.00000000E+00 0.00000000E+00 0.00000000E+00 0.00000000E+00 0.00000000E+00
 5  5 0.00000000E+00 0.00000000E+00 0.00000000E+00 0.00000000E+00 0.00000000E+00
 5  6 0.00000000E+00 0.00000000E+00 0.00000000E+00 0.00000000E+00 0.00000000E+00
 5  7 0.00000000E+00 0.00000000E+00 0.00000000E+00 0.00000000E+00 0.00000000E+00
 5  8 0.00000000E+00 0.00000000E+00 0.00000000E+00 0.00000000E+00 0.00000000E+00
 5  9 0.00000000E+00 0.00000000E+00 0.00000000E+00 0.00000000E+00 0.00000000E+00
 5 10 0.00000000E+00 0.00000000E+00 0.00000000E+00 0.00000000E+00 0.00000000E+00
 5 11 0.00000000E+00 0.00000000E+00 0.00000000E+00 0.00000000E+00 0.00000000E+00
 5 12 0.00000000E+00 0.00000000E+00 0.00000000E+00 0.00000000E+00 0.00000000E+00
 5 13 0.00000000E+00 0.00000000E+00 0.00000000E+00 0.00000000E+00 0.00000000E+00
 5 14 0.00000000E+00 0.00000000E+00 1.00614354E-03-1.00614354E-03 0.00000000E+00
 5 15 0.00000000E+00 0.00000000E+00 0.00000000E+00 6.09912765E-03-6.09912765E-03
 5 16 0.00000000E+00 0.00000000E+00 0.00000000E+00 0.00000000E+00 2.42437650E-02
 5 17-2.42437650E-02 0.00000000E+00 0.00000000E+00 0.00000000E+00 0.00000000E+00
 5 18 7.45134714E-02-7.45134714E-02 0.00000000E+00 0.00000000E+00 0.00000000E+00
 5 19 0.00000000E+00 1.52071045E-01-1.52071045E-01 0.00000000E+00 0.00000000E+00
 5 20 0.00000000E+00 0.00000000E+00 2.34596471E-01-2.34596471E-01 0.00000000E+00
 5 21 0.00000000E+00 0.00000000E+00 0.00000000E+00 2.61270044E-01-2.61270044E-01
 5 22 0.00000000E+00 0.00000000E+00 0.00000000E+00 0.00000000E+00 2.27612463E-01
 5 23-2.27612463E-01 0.00000000E+00 0.00000000E+00 0.00000000E+00 0.00000000E+00
 5 24 1.37642500E-01-1.37642500E-01 0.00000000E+00 0.00000000E+00 0.00000000E+00
 5 25 0.00000000E+00 5.28337118E-02-5.28337118E-02 0.00000000E+00 0.00000000E+00
 5 26 0.00000000E+00 0.00000000E+00 8.05925699E-03-8.05925699E-03 0.00000000E+00
 5 27 0.00000000E+00 0.00000000E+00 0.00000000E+00-3.32889603E-05 3.32889603E-05
 5 28 0.00000000E+00 0.00000000E+00 0.00000000E+00 0.00000000E+00 0.00000000E+00
 5 29 0.00000000E+00 0.00000000E+00 0.00000000E+00 0.00000000E+00 0.00000000E+00
 5 30 0.00000000E+00 0.00000000E+00 0.00000000E+00 0.00000000E+00 0.00000000E+00
 5 31 0.00000000E+00 0.00000000E+00 0.00000000E+00 0.00000000E+00 0.00000000E+00
 5 32 0.00000000E+00 0.00000000E+00 0.00000000E+00 0.00000000E+00 0.00000000E+00
 5 33 0.00000000E+00 0.00000000E+00 0.00000000E+00 0.00000000E+00 0.00000000E+00
 5 34 0.00000000E+00 0.00000000E+00 0.00000000E+00 0.00000000E+00 0.00000000E+00
 5 35 0.00000000E+00 0.00000000E+00 0.00000000E+00 0.00000000E+00 0.00000000E+00
 5 36 0.00000000E+00 0.00000000E+00 0.00000000E+00 0.00000000E+00 0.00000000E+00
 5 37 0.00000000E+00 0.00000000E+00 0.00000000E+00 0.00000000E+00 0.00000000E+00
 5 38 0.00000000E+00 0.00000000E+00 0.00000000E+00 0.00000000E+00-9.29218433E-05
 5 39 9.29218433E-05 0.00000000E+00 0.00000000E+00 0.00000000E+00 0.00000000E+00
 5 40 0.00000000E+00 0.00000000E+00 0.00000000E+00 0.00000000E+00 1.63228381E-04
 5 41-1.63228381E-04 0.00000000E+00 0.00000000E+00 0.00000000E+00-5.51832526E-04
 5 42 5.51832526E-04 0.00000000E+00 0.00000000E+00 0.00000000E+00 0.00000000E+00
 5 43 0.00000000E+00 0.00000000E+00 0.00000000E+00 0.00000000E+00 9.69360124E-04
 5 44-9.69360124E-04 0.00000000E+00 0.00000000E+00 0.00000000E+00-6.36420822E-04
 5 45 6.36420822E-04 0.00000000E+00 0.00000000E+00 0.00000000E+00 0.00000000E+00
 5 46 0.00000000E+00 0.00000000E+00 0.00000000E+00 0.00000000E+00 1.11794963E-03
 5 47-1.11794963E-03 0.00000000E+00 0.00000000E+00 0.00000000E+00-2.15739034E-04
 5 48 2.15739034E-04 0.00000000E+00 0.00000000E+00 0.00000000E+00 0.00000000E+00
 5 49 0.00000000E+00 0.00000000E+00 0.00000000E+00 0.00000000E+00 3.78971531E-04
 5 50-3.78971531E-04 0.00000000E+00 0.00000000E+00 0.00000000E+00
 6  1-1.94138120E-08-9.75893560E-08-3.62646617E-07-1.11244990E-06-1.22890142E-06
 6  2-5.38475511E-06 3.84176607E-05-2.69677238E-04 2.14187938E-04 1.00818074E-03
 6  3 2.35899019E-04-1.19601427E-03-3.08047933E-03-4.58188476E-03 4.06773139E-03
 6  4 1.15103960E-02 4.58737667E-03-9.35060862E-06 2.46823942E-05 0.00000000E+00
 6  5 0.00000000E+00 0.00000000E+00 0.00000000E+00 0.00000000E+00 0.00000000E+00
 6  6 0.00000000E+00 0.00000000E+00 0.00000000E+00 0.00000000E+00 0.00000000E+00
 6  7 0.00000000E+00 0.00000000E+00 0.00000000E+00 0.00000000E+00 0.00000000E+00
 6  8 0.00000000E+00 0.00000000E+00 0.00000000E+00 0.00000000E+00 0.00000000E+00
 6  9 0.00000000E+00 0.00000000E+00 0.00000000E+00 0.00000000E+00 0.00000000E+00
 6 10 0.00000000E+00 0.00000000E+00 0.00000000E+00 0.00000000E+00 0.00000000E+00
 6 11 0.00000000E+00 0.00000000E+00 0.00000000E+00 0.00000000E+00 0.00000000E+00
 6 12 0.00000000E+00 0.00000000E+00 0.00000000E+00 0.00000000E+00 0.00000000E+00
 6 13 0.00000000E+00 0.00000000E+00 0.00000000E+00 0.00000000E+00 0.00000000E+00
 6 14 0.00000000E+00 0.00000000E+00-5.95850864E-04-5.95850864E-04 1.19170173E-03
 6 15 0.00000000E+00 0.00000000E+00 0.00000000E+00-3.60943978E-03-3.60943978E-03
 6 16 7.21887955E-03 0.00000000E+00 0.00000000E+00 0.00000000E+00-1.43459075E-02
 6 17-1.43459075E-02 2.86918150E-02 0.00000000E+00 0.00000000E+00 0.00000000E+00
 6 18-4.40521942E-02-4.40521942E-02 8.81043885E-02 0.00000000E+00 0.00000000E+00
 6 19 0.00000000E+00-9.03675457E-02-9.03675457E-02 1.80735091E-01 0.00000000E+00
 6 20 0.00000000E+00 0.00000000E+00-1.40475841E-01-1.40475841E-01 2.80951683E-01
 6 21 0.00000000E+00 0.00000000E+00 0.00000000E+00-1.55559575E-01-1.55559575E-01
 6 22 3.11119149E-01 0.00000000E+00 0.00000000E+00 0.00000000E+00-1.29524166E-01
 6 23-1.29524166E-01 2.59048331E-01 0.00000000E+00 0.00000000E+00 0.00000000E+00
 6 24-7.02920606E-02-7.02920606E-02 1.40584121E-01 0.00000000E+00 0.00000000E+00
 6 25 0.00000000E+00-2.18454720E-02-2.18454720E-02 4.36909439E-02 0.00000000E+00
 6 26 0.00000000E+00 0.00000000E+00-2.24474399E-03-2.24474399E-03 4.48948798E-03
 6 27 0.00000000E+00 0.00000000E+00 0.00000000E+00 7.63170046E-06 7.63170046E-06
 6 28-1.52634009E-05 0.00000000E+00 0.00000000E+00 0.00000000E+00 0.00000000E+00
 6 29 0.00000000E+00 0.00000000E+00 0.00000000E+00 0.00000000E+00 0.00000000E+00
 6 30 0.00000000E+00 0.00000000E+00 0.00000000E+00 0.00000000E+00 0.00000000E+00
 6 31 0.00000000E+00 0.00000000E+00 0.00000000E+00 0.00000000E+00 0.00000000E+00
 6 32 0.00000000E+00 0.00000000E+00 0.00000000E+00 0.00000000E+00 0.00000000E+00
 6 33 0.00000000E+00 0.00000000E+00 0.00000000E+00 0.00000000E+00 0.00000000E+00
 6 34 0.00000000E+00 0.00000000E+00 0.00000000E+00 0.00000000E+00 0.00000000E+00
 6 35 0.00000000E+00 0.00000000E+00 0.00000000E+00 0.00000000E+00 0.00000000E+00
 6 36 0.00000000E+00 0.00000000E+00 0.00000000E+00 0.00000000E+00 0.00000000E+00
 6 37 0.00000000E+00 0.00000000E+00 0.00000000E+00 0.00000000E+00 0.00000000E+00
 6 38 0.00000000E+00 0.00000000E+00 0.00000000E+00 0.00000000E+00 1.49947835E-04
 6 39 1.49947835E-04 3.85078677E-04 0.00000000E+00 0.00000000E+00 0.00000000E+00
 6 40 0.00000000E+00 0.00000000E+00 0.00000000E+00 7.48170919E-05-3.38218478E-04
 6 41-3.38218478E-04 0.00000000E+00 0.00000000E+00 0.00000000E+00 1.48022250E-03
 6 42 1.48022250E-03 2.30774756E-03 0.00000000E+00 0.00000000E+00 0.00000000E+00
 6 43 0.00000000E+00 0.00000000E+00 0.00000000E+00-5.73270726E-04-2.02691791E-03
 6 44-2.02691791E-03 0.00000000E+00 0.00000000E+00 0.00000000E+00 2.06498344E-03
 6 45 2.06498344E-03 2.73724934E-03 0.00000000E+00 0.00000000E+00 0.00000000E+00
 6 46 0.00000000E+00 0.00000000E+00 0.00000000E+00-1.22323784E-03-2.40415365E-03
 6 47-2.40415365E-03 0.00000000E+00 0.00000000E+00 0.00000000E+00 7.42586745E-04
 6 48 7.42586745E-04 9.76467515E-04 0.00000000E+00 0.00000000E+00 0.00000000E+00
 6 49 0.00000000E+00 0.00000000E+00 0.00000000E+00-4.46801579E-04-8.57641248E-04
 6 50-8.57641248E-04 0.00000000E+00 0.00000000E+00 0.00000000E+00
 7  1-0.00000000E+00-0.00000000E+00-0.00000000E+00-0.00000000E+00-0.00000000E+00
 7  2-0.00000000E+00-0.00000000E+00-0.00000000E+00-0.00000000E+00-0.00000000E+00
 7  3-0.00000000E+00-0.00000000E+00-0.00000000E+00-0.00000000E+00-0.00000000E+00
 7  4-0.00000000E+00-0.00000000E+00-0.00000000E+00-0.00000000E+00-0.00000000E+00
 7  5-0.00000000E+00-0.00000000E+00-0.00000000E+00-0.00000000E+00-0.00000000E+00
 7  6-0.00000000E+00-0.00000000E+00-0.00000000E+00-0.00000000E+00-0.00000000E+00
 7  7-0.00000000E+00-0.00000000E+00-0.00000000E+00-0.00000000E+00-0.00000000E+00
 7  8-0.00000000E+00-0.00000000E+00-0.00000000E+00-0.00000000E+00-0.00000000E+00
 7  9-0.00000000E+00-0.00000000E+00-0.00000000E+00-0.00000000E+00-0.00000000E+00
 7 10-0.00000000E+00-0.00000000E+00-0.00000000E+00-0.00000000E+00-0.00000000E+00
 7 11-0.00000000E+00-0.00000000E+00-0.00000000E+00-0.00000000E+00-0.00000000E+00
 7 12-0.00000000E+00-0.00000000E+00-0.00000000E+00-0.00000000E+00-0.00000000E+00
 7 13-0.00000000E+00-0.00000000E+00-0.00000000E+00-0.00000000E+00-0.00000000E+00
 7 14-0.00000000E+00-0.00000000E+00-0.00000000E+00-0.00000000E+00-0.00000000E+00
 7 15-0.00000000E+00 1.19024797E-03-0.00000000E+00-0.00000000E+00-0.00000000E+00
 7 16-0.00000000E+00-0.00000000E+00 7.21033520E-03-0.00000000E+00-0.00000000E+00
 7 17-0.00000000E+00-0.00000000E+00-0.00000000E+00 2.86582189E-02-0.00000000E+00
 7 18-0.00000000E+00-0.00000000E+00-0.00000000E+00-0.00000000E+00 8.80008176E-02
 7 19-0.00000000E+00-0.00000000E+00-0.00000000E+00-0.00000000E+00-0.00000000E+00
 7 20 1.80473346E-01-0.00000000E+00-0.00000000E+00-0.00000000E+00-0.00000000E+00
 7 21-0.00000000E+00 2.80458828E-01-0.00000000E+00-0.00000000E+00-0.00000000E+00
 7 22-0.00000000E+00-0.00000000E+00 3.10638350E-01-0.00000000E+00-0.00000000E+00
 7 23-0.00000000E+00-0.00000000E+00-0.00000000E+00 2.59286207E-01-0.00000000E+00
 7 24-0.00000000E+00-0.00000000E+00-0.00000000E+00-0.00000000E+00 1.41710819E-01
 7 25-0.00000000E+00-0.00000000E+00-0.00000000E+00-0.00000000E+00-0.00000000E+00
 7 26 4.46206167E-02-0.00000000E+00-0.00000000E+00-0.00000000E+00-0.00000000E+00
 7 27-0.00000000E+00 4.66693448E-03-0.00000000E+00-0.00000000E+00-0.00000000E+00
 7 28-0.00000000E+00-0.00000000E+00-2.22647266E-05-0.00000000E+00-0.00000000E+00
 7 29-0.00000000E+00-0.00000000E+00-0.00000000E+00-0.00000000E+00-0.00000000E+00
 7 30-0.00000000E+00-0.00000000E+00-0.00000000E+00-0.00000000E+00-0.00000000E+00
 7 31-0.00000000E+00-0.00000000E+00-0.00000000E+00-0.00000000E+00-0.00000000E+00
 7 32-0.00000000E+00-0.00000000E+00-0.00000000E+00-0.00000000E+00-0.00000000E+00
 7 33-0.00000000E+00-0.00000000E+00-0.00000000E+00-0.00000000E+00-0.00000000E+00
 7 34-0.00000000E+00-0.00000000E+00-0.00000000E+00-0.00000000E+00-0.00000000E+00
 7 35-0.00000000E+00-0.00000000E+00-0.00000000E+00-0.00000000E+00-0.00000000E+00
 7 36-0.00000000E+00-0.00000000E+00-0.00000000E+00-0.00000000E+00-0.00000000E+00