 $CONTRL 
     SCFTYP=ROHF 
     MULT=3
     ICHARG=0 
     RUNTYP=ENERGY
     MAXIT=150
     ECP=READ
     ISPHER=1
 $END

 $SYSTEM 
     KDIAG=3
     MWORDS=100
 $END

 $SCF
!    DIRSCF=.t.
    DIIS=.t.
    DAMP=.t.
    SHIFT=.t.
    RSTRCT=.t.
 $END


 $GUESS
!    GUESS=HUCKEL
    GUESS=MOREAD
    NORB=71
    NORDER=1
    IORDER(6)=9,7,6,10,8
 $END


 $DATA  

C1
Ni 28 0.0 0.0 0.0
S  13
  1      97.161835  0.00070900
  2      51.187866  -0.01239900
  3      26.996725  0.10722000
  4      15.523536  -0.12455600
  5       8.916168  -0.35102300
  6       4.795806  -0.02575800
  7       2.619926  0.49894800
  8       1.330111  0.56898600
  9       0.668901  0.19112100
 10       0.230439  0.01027800
 11       0.121518  -0.00362700
 12       0.057951  0.00129500
 13       0.027201  -0.00030700
S  13
  1      97.161835  -0.00014000
  2      51.187866  0.00275600
  3      26.996725  -0.02548200
  4      15.523536  0.03218200
  5       8.916168  0.08622600
  6       4.795806  0.00110400
  7       2.619926  -0.13579000
  8       1.330111  -0.21572400
  9       0.668901  -0.15836700
 10       0.230439  0.14349900
 11       0.121518  0.44367200
 12       0.057951  0.47255800
 13       0.027201  0.11017300
S  13
  1      97.161835  0.00012100
  2      51.187866  0.00332200
  3      26.996725  -0.04578500
  4      15.523536  0.05341500
  5       8.916168  0.22227000
  6       4.795806  -0.07306500
  7       2.619926  -0.29399800
  8       1.330111  -0.66893800
  9       0.668901  0.29750400
 10       0.230439  1.23374800
 11       0.121518  0.12931700
 12       0.057951  -0.60340700
 13       0.027201  -0.53306200
S  13
  1      97.161835  0.00043400
  2      51.187866  0.00484800
  3      26.996725  -0.08781800
  4      15.523536  0.12185200
  5       8.916168  0.45421800
  6       4.795806  -0.24576500
  7       2.619926  -0.99734500
  8       1.330111  -0.83458600
  9       0.668901  2.28567500
 10       0.230439  0.25153800
 11       0.121518  -1.98879600
 12       0.057951  0.34760200
 13       0.027201  0.82415000
S  13
  1      97.161835  0.00246100
  2      51.187866  -0.02346000
  3      26.996725  0.19859000
  4      15.523536  -0.40252500
  5       8.916168  -0.40556800
  6       4.795806  0.38789300
  7       2.619926  2.68467900
  8       1.330111  -2.95595600
  9       0.668901  -0.66746700
 10       0.230439  4.09407400
 11       0.121518  -3.10335500
 12       0.057951  -0.76872800
 13       0.027201  1.33121700
S  1
  1       0.027201  1.00000000
P  13
  1     148.087630  0.00005500
  2      77.452187  -0.00054800
  3      40.915636  0.00697900
  4      22.575667  -0.02365800
  5      13.218268  -0.07568200
  6       7.232093  0.02725300
  7       4.054870  0.28477800
  8       2.122089  0.42763200
  9       1.092769  0.30993700
 10       0.548240  0.08853500
 11       0.238886  0.00642700
 12       0.084667  0.00070800
 13       0.038921  0.00018600
P  13
  1     148.087630  0.00002700
  2      77.452187  -0.00008800
  3      40.915636  -0.00077300
  4      22.575667  0.00334500
  5      13.218268  0.01940500
  6       7.232093  -0.01428800
  7       4.054870  -0.05452700
  8       2.122089  -0.11645400
  9       1.092769  -0.06023600
 10       0.548240  -0.02392800
 11       0.238886  0.34786900
 12       0.084667  0.52262600
 13       0.038921  0.27647100
P  13
  1     148.087630  -0.00023700
  2      77.452187  0.00145600
  3      40.915636  -0.00974500
  4      22.575667  0.03779900
  5      13.218268  0.05252100
  6       7.232093  -0.03500600
  7       4.054870  -0.45557700
  8       2.122089  -0.36830600
  9       1.092769  0.10039200
 10       0.548240  1.07665200
 11       0.238886  -0.04532600
 12       0.084667  -0.70318600
 13       0.038921  0.00458000
P  13
  1     148.087630  -0.00026000
  2      77.452187  0.00107100
  3      40.915636  0.00232200
  4      22.575667  -0.03214000
  5      13.218268  -0.13413600
  6       7.232093  0.22906200
  7       4.054870  0.75223900
  8       2.122089  0.20553500
  9       1.092769  -1.69291000
 10       0.548240  0.43629500
 11       0.238886  1.21951400
 12       0.084667  -0.94551600
 13       0.038921  -0.06223200
P  13
  1     148.087630  0.00008000
  2      77.452187  -0.00010100
  3      40.915636  -0.00649200
  4      22.575667  0.08312900
  5      13.218268  0.19539300
  6       7.232093  -0.76580600
  7       4.054870  -1.20601700
  8       2.122089  2.42444400
  9       1.092769  -0.07938700
 10       0.548240  -2.32544900
 11       0.238886  2.12913300
 12       0.084667  -0.73358500
 13       0.038921  -0.18044400
P  1
  1       0.038921  1.00000000
D  11
  1     177.900125  0.00004900
  2      57.372112  0.00751900
  3      29.881432  0.03645500
  4      13.971757  0.08690100
  5       6.841152  0.18056800
  6       3.379983  0.26818700
  7       1.651827  0.29675600
  8       0.799251  0.25155800
  9       0.388057  0.16231900
 10       0.191191  0.07211900
 11       0.093358  0.02368900
D  11
  1     177.900125  -0.00005300
  2      57.372112  -0.00885000
  3      29.881432  -0.04191600
  4      13.971757  -0.10469100
  5       6.841152  -0.21946400
  6       3.379983  -0.28371200
  7       1.651827  -0.12212700
  8       0.799251  0.19012300
  9       0.388057  0.37659800
 10       0.191191  0.29512200
 11       0.093358  0.17825200
D  11
  1     177.900125  0.00007900
  2      57.372112  0.01144200
  3      29.881432  0.05397200
  4      13.971757  0.14106800
  5       6.841152  0.30229400
  6       3.379983  0.23655800
  7       1.651827  -0.29131100
  8       0.799251  -0.58175800
  9       0.388057  -0.02406300
 10       0.191191  0.38938700
 11       0.093358  0.43083300
D  11
  1     177.900125  -0.00012400
  2      57.372112  -0.01660200
  3      29.881432  -0.07753300
  4      13.971757  -0.22182600
  5       6.841152  -0.48165800
  6       3.379983  0.18244700
  7       1.651827  0.94562600
  8       0.799251  -0.33424100
  9       0.388057  -0.76116400
 10       0.191191  0.13681600
 11       0.093358  0.60078500
D  1
  1       0.093358  1.00000000
F  1
  1       0.659980  1.00000000
F  1
  1       2.182234  1.00000000
F  1
  1       7.215589  1.00000000
G  1
  1       1.549000  1.00000000
G  1
  1       5.290163  1.00000000
S  1
  1       2.749235  1.00000000
S  1
  1       3.424032  1.00000000
P  1
  1       2.987946  1.00000000
P  1
  1       9.332016  1.00000000
D  1
  1       4.388587  1.00000000
D  1
  1       5.303761  1.00000000
F  1
  1       4.238774  1.00000000
G  1
  1       7.523045  1.00000000

 $END

 $ECP
Ni-ccECP GEN 10 2
4
  18.000                 1 2.82630001015327e+01
  508.7340018275886      3 2.69360254587070e+01
 -2.20099999296390e+02   2 2.70860075292970e+01
 -2.13493270999809e+00   2 1.22130001295874e+01
2
  3.21240002430625e+02   2 2.64320193944270e+01
  6.03470084610628e+01   2 1.17489696842121e+01
2
  2.36539998999428e+02   2 2.94929998193907e+01
  4.43969887908906e+01   2 1.15569831458722e+01
 $END

 $VEC   
 1  1 9.99950661E-01 1.53320300E-03 8.87415882E-05 9.46338449E-05-2.47942279E-05
 1  2-1.94434823E-05 0.00000000E+00 0.00000000E+00 0.00000000E+00 0.00000000E+00
 1  3 0.00000000E+00 0.00000000E+00 0.00000000E+00 0.00000000E+00 0.00000000E+00
 1  4 0.00000000E+00 0.00000000E+00 0.00000000E+00 0.00000000E+00 0.00000000E+00
 1  5 0.00000000E+00 0.00000000E+00 0.00000000E+00 0.00000000E+00 2.50209865E-09
 1  6-1.24744009E-09-1.25465856E-09 0.00000000E+00 0.00000000E+00 0.00000000E+00
 1  7-3.63058977E-10 1.81721905E-10 1.81337071E-10 0.00000000E+00 0.00000000E+00
 1  8 0.00000000E+00-9.31583644E-11 4.85224750E-11 4.46358894E-11 0.00000000E+00
 1  9 0.00000000E+00 0.00000000E+00 5.76006924E-11-2.56967029E-11-3.19039895E-11
 1 10 0.00000000E+00 0.00000000E+00 0.00000000E+00-6.55909277E-11 3.05687947E-11
 1 11 3.50221330E-11 0.00000000E+00 0.00000000E+00 0.00000000E+00 0.00000000E+00
 1 12 0.00000000E+00 0.00000000E+00 0.00000000E+00 0.00000000E+00 0.00000000E+00
 1 13 0.00000000E+00 0.00000000E+00 0.00000000E+00 0.00000000E+00 0.00000000E+00
 1 14 0.00000000E+00 0.00000000E+00 0.00000000E+00 0.00000000E+00 0.00000000E+00
 1 15 0.00000000E+00 0.00000000E+00 0.00000000E+00 0.00000000E+00 0.00000000E+00
 1 16 0.00000000E+00 0.00000000E+00 0.00000000E+00 0.00000000E+00 0.00000000E+00
 1 17 0.00000000E+00 0.00000000E+00 0.00000000E+00 0.00000000E+00-8.76103466E-04
 1 18 2.19025858E-04 2.19025857E-04 0.00000000E+00 0.00000000E+00 0.00000000E+00
 1 19 0.00000000E+00 0.00000000E+00 0.00000000E+00 7.69490493E-04 7.69490494E-04
 1 20-1.15423572E-03 0.00000000E+00 0.00000000E+00 0.00000000E+00-1.03608939E-04
 1 21 2.59022087E-05 2.59022055E-05 0.00000000E+00 0.00000000E+00 0.00000000E+00
 1 22 0.00000000E+00 0.00000000E+00 0.00000000E+00 9.10007711E-05 9.10007768E-05
 1 23-1.36501112E-04 0.00000000E+00 0.00000000E+00 0.00000000E+00 2.56021673E-04
 1 24-2.15013904E-04 0.00000000E+00 0.00000000E+00 0.00000000E+00 0.00000000E+00
 1 25 0.00000000E+00 0.00000000E+00-3.75575911E-10 1.71222113E-10 2.04353799E-10
 1 26 0.00000000E+00 0.00000000E+00 0.00000000E+00 1.98598558E-10-8.66799680E-11
 1 27-1.11918590E-10 0.00000000E+00 0.00000000E+00 0.00000000E+00 0.00000000E+00
 1 28 0.00000000E+00 0.00000000E+00 0.00000000E+00 0.00000000E+00 0.00000000E+00
 1 29 0.00000000E+00 0.00000000E+00 0.00000000E+00 0.00000000E+00-2.16133840E-04
 1 30 5.40334545E-05 5.40334593E-05 0.00000000E+00 0.00000000E+00 0.00000000E+00
 1 31 0.00000000E+00 0.00000000E+00 0.00000000E+00 1.89832532E-04 1.89832523E-04
 1 32-2.84748786E-04 0.00000000E+00 0.00000000E+00 0.00000000E+00
 2  1 0.00000000E+00 0.00000000E+00 0.00000000E+00 0.00000000E+00 0.00000000E+00
 2  2 0.00000000E+00 1.00035788E+00 0.00000000E+00 0.00000000E+00 1.43648729E-02
 2  3 0.00000000E+00 0.00000000E+00 1.21613181E-02 0.00000000E+00 0.00000000E+00
 2  4-4.20378623E-04 0.00000000E+00 0.00000000E+00-8.70631290E-04 0.00000000E+00
 2  5 0.00000000E+00-4.48380001E-03 0.00000000E+00 0.00000000E+00 0.00000000E+00
 2  6 0.00000000E+00 0.00000000E+00 0.00000000E+00 0.00000000E+00 0.00000000E+00
 2  7 0.00000000E+00 0.00000000E+00 0.00000000E+00 0.00000000E+00 0.00000000E+00
 2  8 0.00000000E+00 0.00000000E+00 0.00000000E+00 0.00000000E+00 0.00000000E+00
 2  9 0.00000000E+00 0.00000000E+00 0.00000000E+00 0.00000000E+00 0.00000000E+00
 2 10 0.00000000E+00 0.00000000E+00 0.00000000E+00 0.00000000E+00 0.00000000E+00
 2 11 0.00000000E+00 0.00000000E+00 0.00000000E+00 0.00000000E+00-3.04952499E-03
 2 12 0.00000000E+00 0.00000000E+00 0.00000000E+00 0.00000000E+00 2.04568356E-03
 2 13 0.00000000E+00 2.04568355E-03 0.00000000E+00 0.00000000E+00-4.29754900E-03
 2 14 0.00000000E+00 0.00000000E+00 0.00000000E+00 0.00000000E+00 2.88288351E-03
 2 15 0.00000000E+00 2.88288351E-03 0.00000000E+00 0.00000000E+00-1.80646507E-03
 2 16 0.00000000E+00 0.00000000E+00 0.00000000E+00 0.00000000E+00 1.21181361E-03
 2 17 0.00000000E+00 1.21181361E-03 0.00000000E+00 0.00000000E+00 0.00000000E+00
 2 18 0.00000000E+00 0.00000000E+00 0.00000000E+00 0.00000000E+00 0.00000000E+00
 2 19 0.00000000E+00 0.00000000E+00 0.00000000E+00 0.00000000E+00 0.00000000E+00
 2 20 0.00000000E+00 0.00000000E+00 0.00000000E+00 0.00000000E+00 0.00000000E+00
 2 21 0.00000000E+00 0.00000000E+00 0.00000000E+00 0.00000000E+00 0.00000000E+00
 2 22 0.00000000E+00 0.00000000E+00 0.00000000E+00 0.00000000E+00 0.00000000E+00
 2 23 0.00000000E+00 0.00000000E+00 0.00000000E+00 0.00000000E+00 0.00000000E+00
 2 24 0.00000000E+00-5.33591806E-05 0.00000000E+00 0.00000000E+00 5.29535988E-06
 2 25 0.00000000E+00 0.00000000E+00 0.00000000E+00 0.00000000E+00 0.00000000E+00
 2 26 0.00000000E+00 0.00000000E+00 0.00000000E+00 0.00000000E+00 0.00000000E+00
 2 27 0.00000000E+00 0.00000000E+00 0.00000000E+00 0.00000000E+00 2.24133262E-05
 2 28 0.00000000E+00 0.00000000E+00 0.00000000E+00 0.00000000E+00-1.50353170E-05
 2 29 0.00000000E+00-1.50353155E-05 0.00000000E+00 0.00000000E+00 0.00000000E+00
 2 30 0.00000000E+00 0.00000000E+00 0.00000000E+00 0.00000000E+00 0.00000000E+00
 2 31 0.00000000E+00 0.00000000E+00 0.00000000E+00 0.00000000E+00 0.00000000E+00
 2 32 0.00000000E+00 0.00000000E+00 0.00000000E+00 0.00000000E+00
 3  1 0.00000000E+00 0.00000000E+00 0.00000000E+00 0.00000000E+00 0.00000000E+00
 3  2 0.00000000E+00 0.00000000E+00 1.00035788E+00 0.00000000E+00 0.00000000E+00
 3  3 1.43648743E-02 0.00000000E+00 0.00000000E+00 1.21613184E-02 0.00000000E+00
 3  4 0.00000000E+00-4.20378339E-04 0.00000000E+00 0.00000000E+00-8.70631205E-04
 3  5 0.00000000E+00 0.00000000E+00-4.48380037E-03 0.00000000E+00 0.00000000E+00
 3  6 0.00000000E+00 0.00000000E+00 0.00000000E+00 0.00000000E+00 0.00000000E+00
 3  7 0.00000000E+00 0.00000000E+00 0.00000000E+00 0.00000000E+00 0.00000000E+00
 3  8 0.00000000E+00 0.00000000E+00 0.00000000E+00 0.00000000E+00 0.00000000E+00
 3  9 0.00000000E+00 0.00000000E+00 0.00000000E+00 0.00000000E+00 0.00000000E+00
 3 10 0.00000000E+00 0.00000000E+00 0.00000000E+00 0.00000000E+00 0.00000000E+00
 3 11 0.00000000E+00 0.00000000E+00 0.00000000E+00 0.00000000E+00 0.00000000E+00
 3 12 7.62381336E-04 0.00000000E+00 2.04568381E-03 0.00000000E+00 0.00000000E+00
 3 13 0.00000000E+00 0.00000000E+00-3.06852570E-03 0.00000000E+00 0.00000000E+00
 3 14 1.07438705E-03 0.00000000E+00 2.88288383E-03 0.00000000E+00 0.00000000E+00
 3 15 0.00000000E+00 0.00000000E+00-4.32432532E-03 0.00000000E+00 0.00000000E+00
 3 16 4.51616174E-04 0.00000000E+00 1.21181365E-03 0.00000000E+00 0.00000000E+00
 3 17 0.00000000E+00 0.00000000E+00-1.81772033E-03 0.00000000E+00 0.00000000E+00
 3 18 0.00000000E+00 0.00000000E+00 0.00000000E+00 0.00000000E+00 0.00000000E+00
 3 19 0.00000000E+00 0.00000000E+00 0.00000000E+00 0.00000000E+00 0.00000000E+00
 3 20 0.00000000E+00 0.00000000E+00 0.00000000E+00 0.00000000E+00 0.00000000E+00
 3 21 0.00000000E+00 0.00000000E+00 0.00000000E+00 0.00000000E+00 0.00000000E+00
 3 22 0.00000000E+00 0.00000000E+00 0.00000000E+00 0.00000000E+00 0.00000000E+00
 3 23 0.00000000E+00 0.00000000E+00 0.00000000E+00 0.00000000E+00 0.00000000E+00
 3 24 0.00000000E+00 0.00000000E+00-5.33591940E-05 0.00000000E+00 0.00000000E+00
 3 25 5.29535928E-06 0.00000000E+00 0.00000000E+00 0.00000000E+00 0.00000000E+00
 3 26 0.00000000E+00 0.00000000E+00 0.00000000E+00 0.00000000E+00 0.00000000E+00
 3 27 0.00000000E+00 0.00000000E+00 0.00000000E+00 0.00000000E+00 0.00000000E+00
 3 28-5.60330160E-06 0.00000000E+00-1.50355566E-05 0.00000000E+00 0.00000000E+00
 3 29 0.00000000E+00 0.00000000E+00 2.25531746E-05 0.00000000E+00 0.00000000E+00
 3 30 0.00000000E+00 0.00000000E+00 0.00000000E+00 0.00000000E+00 0.00000000E+00
 3 31 0.00000000E+00 0.00000000E+00 0.00000000E+00 0.00000000E+00 0.00000000E+00
 3 32 0.00000000E+00 0.00000000E+00 0.00000000E+00 0.00000000E+00
 4  1 0.00000000E+00 0.00000000E+00 0.00000000E+00 0.00000000E+00 0.00000000E+00
 4  2 0.00000000E+00 0.00000000E+00 0.00000000E+00 1.00035788E+00 0.00000000E+00
 4  3 0.00000000E+00 1.43648743E-02 0.00000000E+00 0.00000000E+00 1.21613184E-02
 4  4 0.00000000E+00 0.00000000E+00-4.20378339E-04 0.00000000E+00 0.00000000E+00
 4  5-8.70631205E-04 0.00000000E+00 0.00000000E+00-4.48380037E-03 0.00000000E+00
 4  6 0.00000000E+00 0.00000000E+00 0.00000000E+00 0.00000000E+00 0.00000000E+00
 4  7 0.00000000E+00 0.00000000E+00 0.00000000E+00 0.00000000E+00 0.00000000E+00
 4  8 0.00000000E+00 0.00000000E+00 0.00000000E+00 0.00000000E+00 0.00000000E+00
 4  9 0.00000000E+00 0.00000000E+00 0.00000000E+00 0.00000000E+00 0.00000000E+00
 4 10 0.00000000E+00 0.00000000E+00 0.00000000E+00 0.00000000E+00 0.00000000E+00
 4 11 0.00000000E+00 0.00000000E+00 0.00000000E+00 0.00000000E+00 0.00000000E+00
 4 12 0.00000000E+00 7.62381336E-04 0.00000000E+00 2.04568381E-03 0.00000000E+00
 4 13-3.06852570E-03 0.00000000E+00 0.00000000E+00 0.00000000E+00 0.00000000E+00
 4 14 0.00000000E+00 1.07438705E-03 0.00000000E+00 2.88288383E-03 0.00000000E+00
 4 15-4.32432532E-03 0.00000000E+00 0.00000000E+00 0.00000000E+00 0.00000000E+00
 4 16 0.00000000E+00 4.51616174E-04 0.00000000E+00 1.21181365E-03 0.00000000E+00
 4 17-1.81772033E-03 0.00000000E+00 0.00000000E+00 0.00000000E+00 0.00000000E+00
 4 18 0.00000000E+00 0.00000000E+00 0.00000000E+00 0.00000000E+00 0.00000000E+00
 4 19 0.00000000E+00 0.00000000E+00 0.00000000E+00 0.00000000E+00 0.00000000E+00
 4 20 0.00000000E+00 0.00000000E+00 0.00000000E+00 0.00000000E+00 0.00000000E+00
 4 21 0.00000000E+00 0.00000000E+00 0.00000000E+00 0.00000000E+00 0.00000000E+00
 4 22 0.00000000E+00 0.00000000E+00 0.00000000E+00 0.00000000E+00 0.00000000E+00
 4 23 0.00000000E+00 0.00000000E+00 0.00000000E+00 0.00000000E+00 0.00000000E+00
 4 24 0.00000000E+00 0.00000000E+00 0.00000000E+00-5.33591941E-05 0.00000000E+00
 4 25 0.00000000E+00 5.29535931E-06 0.00000000E+00 0.00000000E+00 0.00000000E+00
 4 26 0.00000000E+00 0.00000000E+00 0.00000000E+00 0.00000000E+00 0.00000000E+00
 4 27 0.00000000E+00 0.00000000E+00 0.00000000E+00 0.00000000E+00 0.00000000E+00
 4 28 0.00000000E+00-5.60330163E-06 0.00000000E+00-1.50355566E-05 0.00000000E+00
 4 29 2.25531746E-05 0.00000000E+00 0.00000000E+00 0.00000000E+00 0.00000000E+00
 4 30 0.00000000E+00 0.00000000E+00 0.00000000E+00 0.00000000E+00 0.00000000E+00
 4 31 0.00000000E+00 0.00000000E+00 0.00000000E+00 0.00000000E+00 0.00000000E+00
 4 32 0.00000000E+00 0.00000000E+00 0.00000000E+00 0.00000000E+00
 5  1-1.54211655E-03 9.99929733E-01-6.34346366E-04 3.83264666E-06 4.70838518E-06
 5  2 8.59770804E-05 0.00000000E+00 0.00000000E+00 0.00000000E+00 0.00000000E+00
 5  3 0.00000000E+00 0.00000000E+00 0.00000000E+00 0.00000000E+00 0.00000000E+00
 5  4 0.00000000E+00 0.00000000E+00 0.00000000E+00 0.00000000E+00 0.00000000E+00
 5  5 0.00000000E+00 0.00000000E+00 0.00000000E+00 0.00000000E+00 2.97516050E-07
 5  6-1.48753681E-07-1.48762369E-07 0.00000000E+00 0.00000000E+00 0.00000000E+00
 5  7-2.14831235E-08 1.07330959E-08 1.07500276E-08 0.00000000E+00 0.00000000E+00
 5  8 0.00000000E+00-1.90838304E-09 9.56227232E-10 9.52155810E-10 0.00000000E+00
 5  9 0.00000000E+00 0.00000000E+00 2.25325802E-09-1.13007730E-09-1.12318072E-09
 5 10 0.00000000E+00 0.00000000E+00 0.00000000E+00-2.94658380E-08 1.47376096E-08
 5 11 1.47282284E-08 0.00000000E+00 0.00000000E+00 0.00000000E+00 0.00000000E+00
 5 12 0.00000000E+00 0.00000000E+00 0.00000000E+00 0.00000000E+00 0.00000000E+00
 5 13 0.00000000E+00 0.00000000E+00 0.00000000E+00 0.00000000E+00 0.00000000E+00
 5 14 0.00000000E+00 0.00000000E+00 0.00000000E+00 0.00000000E+00 0.00000000E+00
 5 15 0.00000000E+00 0.00000000E+00 0.00000000E+00 0.00000000E+00 0.00000000E+00
 5 16 0.00000000E+00 0.00000000E+00 0.00000000E+00 0.00000000E+00 0.00000000E+00
 5 17 0.00000000E+00 0.00000000E+00 0.00000000E+00 0.00000000E+00-2.31057325E-07
 5 18 5.87320596E-08 5.87310502E-08 0.00000000E+00 0.00000000E+00 0.00000000E+00
 5 19 0.00000000E+00 0.00000000E+00 0.00000000E+00 2.02939087E-07 2.02940861E-07
 5 20-3.06109006E-07 0.00000000E+00 0.00000000E+00 0.00000000E+00-1.79538553E-04
 5 21 4.48850600E-05 4.48850640E-05 0.00000000E+00 0.00000000E+00 0.00000000E+00
 5 22 0.00000000E+00 0.00000000E+00 0.00000000E+00 1.57690522E-04 1.57690515E-04
 5 23-2.36536522E-04 0.00000000E+00 0.00000000E+00 0.00000000E+00 8.62295734E-05
 5 24-7.86038830E-05 0.00000000E+00 0.00000000E+00 0.00000000E+00 0.00000000E+00
 5 25 0.00000000E+00 0.00000000E+00-3.21514974E-09 1.61546616E-09 1.59968358E-09
 5 26 0.00000000E+00 0.00000000E+00 0.00000000E+00 2.39387779E-09-1.21276586E-09
 5 27-1.18111193E-09 0.00000000E+00 0.00000000E+00 0.00000000E+00 0.00000000E+00
 5 28 0.00000000E+00 0.00000000E+00 0.00000000E+00 0.00000000E+00 0.00000000E+00
 5 29 0.00000000E+00 0.00000000E+00 0.00000000E+00 0.00000000E+00 8.97809706E-05
 5 30-2.24452038E-05-2.24452055E-05 0.00000000E+00 0.00000000E+00 0.00000000E+00
 5 31 0.00000000E+00 0.00000000E+00 0.00000000E+00-7.88555317E-05-7.88555286E-05
 5 32 1.18283229E-04 0.00000000E+00 0.00000000E+00 0.00000000E+00
 6  1 0.00000000E+00 0.00000000E+00 0.00000000E+00 0.00000000E+00 0.00000000E+00
 6  2 0.00000000E+00 0.00000000E+00 0.00000000E+00 0.00000000E+00 0.00000000E+00
 6  3 0.00000000E+00 0.00000000E+00 0.00000000E+00 0.00000000E+00 0.00000000E+00
 6  4 0.00000000E+00 0.00000000E+00 0.00000000E+00 0.00000000E+00 0.00000000E+00
 6  5 0.00000000E+00 0.00000000E+00 0.00000000E+00 0.00000000E+00 0.00000000E+00
 6  6-8.65628660E-01 8.65628660E-01 0.00000000E+00 0.00000000E+00 0.00000000E+00
 6  7 0.00000000E+00 2.52317269E-02-2.52317269E-02 0.00000000E+00 0.00000000E+00
 6  8 0.00000000E+00 0.00000000E+00 9.52322895E-03-9.52322894E-03 0.00000000E+00
 6  9 0.00000000E+00 0.00000000E+00 0.00000000E+00 1.39267902E-03-1.39267902E-03
 6 10 0.00000000E+00 0.00000000E+00 0.00000000E+00 0.00000000E+00 1.43073923E-03
 6 11-1.43073923E-03 0.00000000E+00 0.00000000E+00 0.00000000E+00 0.00000000E+00
 6 12 0.00000000E+00 0.00000000E+00 0.00000000E+00 0.00000000E+00 0.00000000E+00
 6 13 0.00000000E+00 0.00000000E+00 0.00000000E+00 0.00000000E+00 0.00000000E+00
 6 14 0.00000000E+00 0.00000000E+00 0.00000000E+00 0.00000000E+00 0.00000000E+00
 6 15 0.00000000E+00 0.00000000E+00 0.00000000E+00 0.00000000E+00 0.00000000E+00
 6 16 0.00000000E+00 0.00000000E+00 0.00000000E+00 0.00000000E+00 0.00000000E+00
 6 17 0.00000000E+00 0.00000000E+00 0.00000000E+00 0.00000000E+00 0.00000000E+00
 6 18 1.84625229E-04-1.84625229E-04 0.00000000E+00 0.00000000E+00 0.00000000E+00
 6 19 0.00000000E+00 0.00000000E+00 0.00000000E+00-3.24316394E-04 3.24316394E-04
 6 20 0.00000000E+00 0.00000000E+00 0.00000000E+00 0.00000000E+00 0.00000000E+00
 6 21 2.80798754E-05-2.80798752E-05 0.00000000E+00 0.00000000E+00 0.00000000E+00
 6 22 0.00000000E+00 0.00000000E+00 0.00000000E+00-4.93256743E-05 4.93256743E-05
 6 23 0.00000000E+00 0.00000000E+00 0.00000000E+00 0.00000000E+00 0.00000000E+00
 6 24 0.00000000E+00 0.00000000E+00 0.00000000E+00 0.00000000E+00 0.00000000E+00
 6 25 0.00000000E+00 0.00000000E+00 0.00000000E+00-1.39774654E-04 1.39774654E-04
 6 26 0.00000000E+00 0.00000000E+00 0.00000000E+00 0.00000000E+00 2.20306559E-04
 6 27-2.20306559E-04 0.00000000E+00 0.00000000E+00 0.00000000E+00 0.00000000E+00
 6 28 0.00000000E+00 0.00000000E+00 0.00000000E+00 0.00000000E+00 0.00000000E+00
 6 29 0.00000000E+00 0.00000000E+00 0.00000000E+00 0.00000000E+00 0.00000000E+00
 6 30 2.97337592E-05-2.97337595E-05 0.00000000E+00 0.00000000E+00 0.00000000E+00
 6 31 0.00000000E+00 0.00000000E+00 0.00000000E+00-5.22309201E-05 5.22309205E-05
 6 32 0.00000000E+00 0.00000000E+00 0.00000000E+00 0.00000000E+00
 7  1 0.00000000E+00 0.00000000E+00 0.00000000E+00 0.00000000E+00 0.00000000E+00
 7  2 0.00000000E+00 0.00000000E+00 0.00000000E+00 0.00000000E+00 0.00000000E+00
 7  3 0.00000000E+00 0.00000000E+00 0.00000000E+00 0.00000000E+00 0.00000000E+00
 7  4 0.00000000E+00 0.00000000E+00 0.00000000E+00 0.00000000E+00 0.00000000E+00
 7  5 0.00000000E+00 0.00000000E+00 0.00000000E+00 0.00000000E+00 0.00000000E+00
 7  6 0.00000000E+00 0.00000000E+00 0.00000000E+00 9.99541879E-01 0.00000000E+00
 7  7 0.00000000E+00 0.00000000E+00 0.00000000E+00 0.00000000E+00-2.91350937E-02
 7  8 0.00000000E+00 0.00000000E+00 0.00000000E+00 0.00000000E+00 0.00000000E+00
 7  9-1.09964794E-02 0.00000000E+00 0.00000000E+00 0.00000000E+00 0.00000000E+00
 7 10 0.00000000E+00-1.60812760E-03 0.00000000E+00 0.00000000E+00 0.00000000E+00
 7 11 0.00000000E+00 0.00000000E+00-1.65207560E-03 0.00000000E+00 0.00000000E+00
 7 12 0.00000000E+00 0.00000000E+00 0.00000000E+00 0.00000000E+00 0.00000000E+00
 7 13 0.00000000E+00 0.00000000E+00 0.00000000E+00 0.00000000E+00 0.00000000E+00
 7 14 0.00000000E+00 0.00000000E+00 0.00000000E+00 0.00000000E+00 0.00000000E+00
 7 15 0.00000000E+00 0.00000000E+00 0.00000000E+00 0.00000000E+00 0.00000000E+00
 7 16 0.00000000E+00 0.00000000E+00 0.00000000E+00 0.00000000E+00 0.00000000E+00
 7 17 0.00000000E+00 0.00000000E+00 0.00000000E+00 0.00000000E+00 0.00000000E+00
 7 18 0.00000000E+00 0.00000000E+00 0.00000000E+00-1.39563081E-04 0.00000000E+00
 7 19 0.00000000E+00 3.48908375E-04 0.00000000E+00 0.00000000E+00 0.00000000E+00
 7 20 0.00000000E+00 0.00000000E+00-2.80866184E-04 0.00000000E+00 0.00000000E+00
 7 21 0.00000000E+00 0.00000000E+00 0.00000000E+00-2.12265773E-05 0.00000000E+00
 7 22 0.00000000E+00 5.30661724E-05 0.00000000E+00 0.00000000E+00 0.00000000E+00
 7 23 0.00000000E+00 0.00000000E+00-4.27172994E-05 0.00000000E+00 0.00000000E+00
 7 24 0.00000000E+00 0.00000000E+00 0.00000000E+00 0.00000000E+00 0.00000000E+00
 7 25 0.00000000E+00 0.00000000E+00 0.00000000E+00 0.00000000E+00 0.00000000E+00
 7 26 0.00000000E+00 1.61397987E-04 0.00000000E+00 0.00000000E+00 0.00000000E+00
 7 27 0.00000000E+00 0.00000000E+00-2.54388223E-04 0.00000000E+00 0.00000000E+00
 7 28 0.00000000E+00 0.00000000E+00 0.00000000E+00 0.00000000E+00 0.00000000E+00
 7 29 0.00000000E+00 0.00000000E+00 0.00000000E+00 0.00000000E+00 0.00000000E+00
 7 30 0.00000000E+00 0.00000000E+00 0.00000000E+00-2.24765601E-05 0.00000000E+00
 7 31 0.00000000E+00 5.61914704E-05 0.00000000E+00 0.00000000E+00 0.00000000E+00
 7 32 0.00000000E+00 0.00000000E+00-4.52332988E-05 0.00000000E+00
 8  1 0.00000000E+00 0.00000000E+00 0.00000000E+00 0.00000000E+00 0.00000000E+00
 8  2 0.00000000E+00 0.00000000E+00 0.00000000E+00 0.00000000E+00 0.00000000E+00
 8  3 0.00000000E+00 0.00000000E+00 0.00000000E+00 0.00000000E+00 0.00000000E+00
 8  4 0.00000000E+00 0.00000000E+00 0.00000000E+00 0.00000000E+00 0.00000000E+00
 8  5 0.00000000E+00 0.00000000E+00 0.00000000E+00 0.00000000E+00 0.00000000E+00
 8  6 0.00000000E+00 0.00000000E+00 9.99541879E-01 0.00000000E+00 0.00000000E+00
 8  7 0.00000000E+00 0.00000000E+00 0.00000000E+00-2.91350937E-02 0.00000000E+00
 8  8 0.00000000E+00 0.00000000E+00 0.00000000E+00 0.00000000E+00-1.09964794E-02
 8  9 0.00000000E+00 0.00000000E+00 0.00000000E+00 0.00000000E+00 0.00000000E+00
 8 10-1.60812760E-03 0.00000000E+00 0.00000000E+00 0.00000000E+00 0.00000000E+00
 8 11 0.00000000E+00-1.65207560E-03 0.00000000E+00 0.00000000E+00 0.00000000E+00
 8 12 0.00000000E+00 0.00000000E+00 0.00000000E+00 0.00000000E+00 0.00000000E+00
 8 13 0.00000000E+00 0.00000000E+00 0.00000000E+00 0.00000000E+00 0.00000000E+00
 8 14 0.00000000E+00 0.00000000E+00 0.00000000E+00 0.00000000E+00 0.00000000E+00
 8 15 0.00000000E+00 0.00000000E+00 0.00000000E+00 0.00000000E+00 0.00000000E+00
 8 16 0.00000000E+00 0.00000000E+00 0.00000000E+00 0.00000000E+00 0.00000000E+00
 8 17 0.00000000E+00 0.00000000E+00 0.00000000E+00 0.00000000E+00 0.00000000E+00
 8 18 0.00000000E+00 0.00000000E+00-1.39563081E-04 0.00000000E+00 3.48908375E-04
 8 19 0.00000000E+00 0.00000000E+00 0.00000000E+00 0.00000000E+00 0.00000000E+00
 8 20 0.00000000E+00 0.00000000E+00 0.00000000E+00-2.80866184E-04 0.00000000E+00
 8 21 0.00000000E+00 0.00000000E+00-2.12265774E-05 0.00000000E+00 5.30661725E-05
 8 22 0.00000000E+00 0.00000000E+00 0.00000000E+00 0.00000000E+00 0.00000000E+00
 8 23 0.00000000E+00 0.00000000E+00 0.00000000E+00-4.27172994E-05 0.00000000E+00
 8 24 0.00000000E+00 0.00000000E+00 0.00000000E+00 0.00000000E+00 0.00000000E+00
 8 25 0.00000000E+00 0.00000000E+00 0.00000000E+00 0.00000000E+00 0.00000000E+00
 8 26 1.61397987E-04 0.00000000E+00 0.00000000E+00 0.00000000E+00 0.00000000E+00
 8 27 0.00000000E+00-2.54388223E-04 0.00000000E+00 0.00000000E+00 0.00000000E+00
 8 28 0.00000000E+00 0.00000000E+00 0.00000000E+00 0.00000000E+00 0.00000000E+00
 8 29 0.00000000E+00 0.00000000E+00 0.00000000E+00 0.00000000E+00 0.00000000E+00
 8 30 0.00000000E+00 0.00000000E+00-2.24765601E-05 0.00000000E+00 5.61914704E-05
 8 31 0.00000000E+00 0.00000000E+00 0.00000000E+00 0.00000000E+00 0.00000000E+00
 8 32 0.00000000E+00 0.00000000E+00 0.00000000E+00-4.52332988E-05
 9  1-3.38710096E-09-3.07148096E-07 1.31360062E-08-1.89661120E-09-6.31440955E-10
 9  2 1.76540812E-08 0.00000000E+00 0.00000000E+00 0.00000000E+00 0.00000000E+00
 9  3 0.00000000E+00 0.00000000E+00 0.00000000E+00 0.00000000E+00 0.00000000E+00
 9  4 0.00000000E+00 0.00000000E+00 0.00000000E+00 0.00000000E+00 0.00000000E+00
 9  5 0.00000000E+00 0.00000000E+00 0.00000000E+00 0.00000000E+00 9.97066138E-01
 9  6-4.98533069E-01-4.98533069E-01 0.00000000E+00 0.00000000E+00 0.00000000E+00
 9  7-5.43774887E-02 2.71887444E-02 2.71887443E-02 0.00000000E+00 0.00000000E+00
 9  8 0.00000000E+00-1.78024715E-02 8.90123575E-03 8.90123574E-03 0.00000000E+00
 9  9 0.00000000E+00 0.00000000E+00-5.47904866E-04 2.73952438E-04 2.73952428E-04
 9 10 0.00000000E+00 0.00000000E+00 0.00000000E+00 1.45416210E-03-7.27081050E-04
 9 11-7.27081045E-04 0.00000000E+00 0.00000000E+00 0.00000000E+00 0.00000000E+00
 9 12 0.00000000E+00 0.00000000E+00 0.00000000E+00 0.00000000E+00 0.00000000E+00
 9 13 0.00000000E+00 0.00000000E+00 0.00000000E+00 0.00000000E+00 0.00000000E+00
 9 14 0.00000000E+00 0.00000000E+00 0.00000000E+00 0.00000000E+00 0.00000000E+00
 9 15 0.00000000E+00 0.00000000E+00 0.00000000E+00 0.00000000E+00 0.00000000E+00
 9 16 0.00000000E+00 0.00000000E+00 0.00000000E+00 0.00000000E+00 0.00000000E+00
 9 17 0.00000000E+00 0.00000000E+00 0.00000000E+00 0.00000000E+00 1.26952568E-03
 9 18 1.58690654E-03 1.58690655E-03 0.00000000E+00 0.00000000E+00 0.00000000E+00
 9 19 0.00000000E+00 0.00000000E+00 0.00000000E+00-1.11503718E-03-1.11503719E-03
 9 20-1.67255480E-03 0.00000000E+00 0.00000000E+00 0.00000000E+00 6.70477884E-04
 9 21 8.38097581E-04 8.38097576E-04 0.00000000E+00 0.00000000E+00 0.00000000E+00
 9 22 0.00000000E+00 0.00000000E+00 0.00000000E+00-5.88887478E-04-5.88887470E-04
 9 23-8.83331604E-04 0.00000000E+00 0.00000000E+00 0.00000000E+00-5.42507085E-09
 9 24 4.14225599E-09 0.00000000E+00 0.00000000E+00 0.00000000E+00 0.00000000E+00
 9 25 0.00000000E+00 0.00000000E+00 8.99982337E-05-4.49991537E-05-4.49990801E-05
 9 26 0.00000000E+00 0.00000000E+00 0.00000000E+00 4.14762807E-04-2.07381377E-04
 9 27-2.07381430E-04 0.00000000E+00 0.00000000E+00 0.00000000E+00 0.00000000E+00
 9 28 0.00000000E+00 0.00000000E+00 0.00000000E+00 0.00000000E+00 0.00000000E+00
 9 29 0.00000000E+00 0.00000000E+00 0.00000000E+00 0.00000000E+00 2.52013417E-05