 $CONTRL 
     SCFTYP=ROHF 
     MULT=2
     ICHARG=0 
     RUNTYP=ENERGY
     MAXIT=150
     ECP=READ
     ISPHER=1
 $END

 $SYSTEM 
     KDIAG=3
 $END

 $GUESS
    GUESS=HUCKEL
 $END


 $DATA  

C1
Al 13    0. 0. 0.
S   10
  1  8.257944  0.003287
  2  4.514245 -0.017168
  3  2.467734  0.069766
  4  1.348998 -0.183475
  5  0.737436 -0.147133
  6  0.403123  0.046882
  7  0.220369  0.308423
  8  0.120466  0.451564
  9  0.065853  0.302904
 10  0.035999  0.079545
S   1                  
  1  0.967736  1.000000
S   1                  
  1  0.379373  1.000000
S   1
  1  0.148722  1.000000 
S   1
  1  0.058302  1.000000 
P   10
  1  1.570603 -0.002645
  2  0.977752 -0.037850
  3  0.608683  0.006636
  4  0.378925  0.089291
  5  0.235893  0.134421
  6  0.146851  0.256105
  7  0.091420  0.238970
  8  0.056912  0.260677
  9  0.035429  0.112350
 10  0.022056  0.052665
P   1
  1  0.951381  1.000000 
P   1
  1  0.456240  1.000000 
P   1
  1  0.218792  1.000000 
P   1
  1  0.104923  1.000000 
D   1
  1  1.586180  1.000000 
D   1
  1  0.603516  1.000000 
D   1
  1  0.229628  1.000000 
D   1
  1  0.087370  1.000000 
F   1
  1  0.546132  1.000000 
F   1
  1  0.262335  1.000000 
F   1
  1  0.126013  1.000000 
G   1
  1  0.535941  1.000000 
G   1
  1  0.243699  1.000000 

 $END

 $ECP
Al-ccECP GEN 10 2
3
3.000000 1 5.073893 
15.221680 3 8.607001 
-11.165685 2 3.027490 
2
14.879513 2 7.863954 
20.746863 2 2.061358 
2
7.786227 2 3.125175 
7.109015 2 1.414930 
 $END


