 $CONTRL 
     SCFTYP=ROHF 
     MULT=4
     ICHARG=0 
     RUNTYP=ENERGY
     MAXIT=150
     ECP=READ
     ISPHER=1
 $END

 $SYSTEM 
     KDIAG=3
 $END

 $GUESS
    GUESS=HUCKEL
 $END


 $DATA  

C1
N 7    0. 0. 0.
S 9
1  42.693822    -0.0009357
2  19.963207     0.0063295
3   9.3345971    0.0105038
4   4.9278187   -0.1653735
5   2.040920    -0.0005352
6   0.967080     0.2452063
7   0.476131     0.4582128
8   0.211443     0.3641224
9   0.098869     0.0620406
S 1
1   1.625001     1.0000000
S 1
1   0.310826     1.0000000
S 1
1   0.135764     1.0000000
P 9
1  18.925871     0.0073505
2   9.225603     0.0292844
3   4.581431     0.0652168
4   2.300164     0.1405153
5   1.154825     0.2328188
6   0.582039     0.2989556
7   0.290535     0.2802507
8   0.145867     0.1527995
9   0.073234     0.0355475
P 1
1   1.020750     1.0000000
P 1
1   0.413103     1.0000000
P 1
1   0.140736     1.0000000
D 1
1   3.028459     1.0000000
D 1
1   1.009895     1.0000000
D 1
1   0.346233     1.0000000
F 1
1   2.024747     1.0000000
F 1
1   0.691129     1.0000000
G 1
1   1.357512     1.0000000

 $END

 $ECP
N-ccECP GEN 2 1
6
3.25000    1  12.91881  
1.75000    1  9.22825   
41.98612   3  12.96581  
16.14945   3  8.05477   
-26.09522   2  12.54876  
-10.32626   2  7.53360   
2
34.77692   2  9.41609   
15.20330   2  8.16694
 $END


