 $CONTRL 
     SCFTYP=ROHF 
     MULT=4
     ICHARG=0 
     RUNTYP=ENERGY
     MAXIT=150
     ECP=READ
     ISPHER=1
 $END

 $SYSTEM 
     KDIAG=3
     MWORDS=100
 $END

 $SCF
!    DIRSCF=.t.
    DIIS=.t.
    DAMP=.t.
    SHIFT=.t.
    RSTRCT=.t.
 $END

 $GUESS
!    GUESS=HUCKEL
    GUESS=MOREAD
    NORB=22
    NORDER=1
    IORDER(5)=8,7,9,5,10,6
 $END


 $DATA  

C1
Co 27 0.0 0.0 0.0
S  13
  1      90.663831  0.00077400
  2      46.961414  -0.01131600
  3      24.110274  0.10120900
  4      14.430881  -0.08164200
  5       8.757423  -0.35481200
  6       4.484459  -0.09036200
  7       2.519739  0.49817400
  8       1.236850  0.60412300
  9       0.601882  0.19077500
 10       0.223338  0.00657800
 11       0.123422  -0.00090500
 12       0.059941  0.00017100
 13       0.027978  -0.00002500
S  13
  1      90.663831  -0.00015400
  2      46.961414  0.00252500
  3      24.110274  -0.02444300
  4      14.430881  0.02220000
  5       8.757423  0.08841600
  6       4.484459  0.01682000
  7       2.519739  -0.13458200
  8       1.236850  -0.23129500
  9       0.601882  -0.16398600
 10       0.223338  0.12133700
 11       0.123422  0.40241400
 12       0.059941  0.50611300
 13       0.027978  0.14543600
S  13
  1      90.663831  -0.00004700
  2      46.961414  0.00365400
  3      24.110274  -0.04613200
  4      14.430881  0.03648300
  5       8.757423  0.21726500
  6       4.484459  -0.01188300
  7       2.519739  -0.32468800
  8       1.236850  -0.68058100
  9       0.601882  0.25693600
 10       0.223338  1.22400500
 11       0.123422  0.23683700
 12       0.059941  -0.60406400
 13       0.027978  -0.57494700
S  13
  1      90.663831  -0.00023100
  2      46.961414  0.00753600
  3      24.110274  -0.09729800
  4      14.430881  0.11161100
  5       8.757423  0.40362100
  6       4.484459  -0.04832400
  7       2.519739  -1.15760000
  8       1.236850  -0.75683900
  9       0.601882  2.31368300
 10       0.223338  0.25307400
 11       0.123422  -1.99146600
 12       0.059941  0.16694200
 13       0.027978  0.91722100
S  13
  1      90.663831  0.00280900
  2      46.961414  -0.02445900
  3      24.110274  0.21171700
  4      14.430881  -0.38745200
  5       8.757423  -0.36690900
  6       4.484459  0.13914300
  7       2.519739  2.83452700
  8       1.236850  -2.90639800
  9       0.601882  -0.80689600
 10       0.223338  4.33605500
 11       0.123422  -2.91360700
 12       0.059941  -1.25330700
 13       0.027978  1.50957200
S  1
  1       0.027978  1.00000000
P  13
  1     139.038145  0.00007500
  2      71.928971  -0.00062700
  3      37.806311  0.00571900
  4      21.054252  -0.00931000
  5      12.973193  -0.08385700
  6       6.791461  0.01239400
  7       3.794018  0.28198700
  8       1.960649  0.43417900
  9       1.006283  0.31340900
 10       0.509539  0.08977800
 11       0.233091  0.00740500
 12       0.083890  0.00098000
 13       0.039802  0.00027400
P  13
  1     139.038145  0.00002500
  2      71.928971  -0.00008400
  3      37.806311  -0.00048500
  4      21.054252  0.00009500
  5      12.973193  0.02240200
  6       6.791461  -0.01153400
  7       3.794018  -0.05686600
  8       1.960649  -0.12607000
  9       1.006283  -0.06088900
 10       0.509539  -0.03508600
 11       0.233091  0.35184700
 12       0.083890  0.51044900
 13       0.039802  0.28970700
P  13
  1     139.038145  -0.00023800
  2      71.928971  0.00148900
  3      37.806311  -0.00872300
  4      21.054252  0.02453800
  5      12.973193  0.06085600
  6       6.791461  -0.02038000
  7       3.794018  -0.43019500
  8       1.960649  -0.40769200
  9       1.006283  0.08532600
 10       0.509539  1.07332600
 11       0.233091  0.01506700
 12       0.083890  -0.71963100
 13       0.039802  -0.02460300
P  13
  1     139.038145  -0.00005500
  2      71.928971  -0.00001700
  3      37.806311  0.00432000
  4      21.054252  -0.02133900
  5      12.973193  -0.12713400
  6       6.791461  0.15720800
  7       3.794018  0.79492700
  8       1.960649  0.23357400
  9       1.006283  -1.66603300
 10       0.509539  0.28271600
 11       0.233091  1.33562500
 12       0.083890  -0.88546900
 13       0.039802  -0.13034000
P  13
  1     139.038145  0.00005200
  2      71.928971  0.00014400
  3      37.806311  -0.00506500
  4      21.054252  0.05166200
  5      12.973193  0.20930600
  6       6.791461  -0.63605200
  7       3.794018  -1.33476100
  8       1.960649  2.33740900
  9       1.006283  0.19062400
 10       0.509539  -2.65784100
 11       0.233091  2.26444400
 12       0.083890  -0.61258400
 13       0.039802  -0.27662000
P  1
  1       0.039802  1.00000000
D  11
  1     160.444504  0.00003400
  2      52.598830  0.00655300
  3      27.491581  0.03618500
  4      12.745988  0.08302600
  5       6.184310  0.17696000
  6       3.029146  0.26399000
  7       1.474099  0.29244700
  8       0.714391  0.24959700
  9       0.348520  0.17163700
 10       0.174166  0.08064900
 11       0.087891  0.04121200
D  11
  1     160.444504  -0.00003100
  2      52.598830  -0.00786900
  3      27.491581  -0.04199200
  4      12.745988  -0.10138800
  5       6.184310  -0.21699600
  6       3.029146  -0.28396200
  7       1.474099  -0.12717900
  8       0.714391  0.17712500
  9       0.348520  0.37559600
 10       0.174166  0.28463100
 11       0.087891  0.20027700
D  11
  1     160.444504  0.00004800
  2      52.598830  0.01053100
  3      27.491581  0.05555900
  4      12.745988  0.14075800
  5       6.184310  0.30578500
  6       3.029146  0.24281200
  7       1.474099  -0.28504400
  8       0.714391  -0.59481900
  9       0.348520  -0.01793700
 10       0.174166  0.34815000
 11       0.087891  0.45517000
D  11
  1     160.444504  -0.00007000
  2      52.598830  -0.01526900
  3      27.491581  -0.07877000
  4      12.745988  -0.21855600
  5       6.184310  -0.47927100
  6       3.029146  0.17362300
  7       1.474099  0.95417300
  8       0.714391  -0.34849000
  9       0.348520  -0.73737100
 10       0.174166  0.07194100
 11       0.087891  0.64488200
D  1
  1       0.087891  1.00000000
F  1
  1       0.574342  1.00000000
F  1
  1       1.905783  1.00000000
F  1
  1       6.323772  1.00000000
G  1
  1       1.312433  1.00000000
G  1
  1       4.581075  1.00000000
S  1
  1       2.586299  1.00000000
S  1
  1       3.168493  1.00000000
P  1
  1       2.724786  1.00000000
P  1
  1       8.491665  1.00000000
D  1
  1       4.048276  1.00000000
D  1
  1       4.726625  1.00000000
F  1
  1       3.823826  1.00000000
G  1
  1       6.901363  1.00000000

 $END

 $ECP
Co-ccECP GEN 10 2
4
   17.00000000 1 25.00124115
  425.02109971 3 22.83490096
 -195.48211282 2 23.47468155
   -2.81572866 2 10.33794825
2              
  271.77708486 2 23.41427030
   54.26461121 2 10.76931694
2
  201.53430745 2 25.47446316
   38.99231927 2 10.68404901
 $END

 $VEC   
 1  1 1.00217532E+00 8.87609929E-03 4.00588712E-03 4.37614783E-03 9.18757585E-05
 1  2-3.57336411E-03 0.00000000E+00 0.00000000E+00 0.00000000E+00 0.00000000E+00
 1  3 0.00000000E+00 0.00000000E+00 0.00000000E+00 0.00000000E+00 0.00000000E+00
 1  4 0.00000000E+00 0.00000000E+00 0.00000000E+00 0.00000000E+00 0.00000000E+00
 1  5 0.00000000E+00 0.00000000E+00 0.00000000E+00 0.00000000E+00 4.20357214E-03
 1  6 4.20357214E-03-8.40714428E-03 0.00000000E+00 0.00000000E+00 0.00000000E+00
 1  7 9.21144403E-04 9.21144404E-04-1.84228881E-03 0.00000000E+00 0.00000000E+00
 1  8 0.00000000E+00-2.59258937E-04-2.59258936E-04 5.18517873E-04 0.00000000E+00
 1  9 0.00000000E+00 0.00000000E+00-4.22468288E-04-4.22468287E-04 8.44936575E-04
 1 10 0.00000000E+00 0.00000000E+00 0.00000000E+00 2.97624059E-04 2.97624058E-04
 1 11-5.95248118E-04 0.00000000E+00 0.00000000E+00 0.00000000E+00 0.00000000E+00
 1 12 0.00000000E+00 0.00000000E+00 0.00000000E+00 0.00000000E+00 0.00000000E+00
 1 13 0.00000000E+00 0.00000000E+00 0.00000000E+00 0.00000000E+00 0.00000000E+00
 1 14 0.00000000E+00 0.00000000E+00 0.00000000E+00 0.00000000E+00 0.00000000E+00
 1 15 0.00000000E+00 0.00000000E+00 0.00000000E+00 0.00000000E+00 0.00000000E+00
 1 16 0.00000000E+00 0.00000000E+00 0.00000000E+00 0.00000000E+00 0.00000000E+00
 1 17 0.00000000E+00 0.00000000E+00 0.00000000E+00 0.00000000E+00 3.78401578E-04
 1 18 3.78401578E-04 1.00907087E-03 0.00000000E+00 0.00000000E+00 0.00000000E+00
 1 19 0.00000000E+00 0.00000000E+00 0.00000000E+00 2.21569277E-04-8.86277106E-04
 1 20-8.86277106E-04 0.00000000E+00 0.00000000E+00 0.00000000E+00 5.74182295E-05
 1 21 5.74182295E-05 1.53115279E-04 0.00000000E+00 0.00000000E+00 0.00000000E+00
 1 22 0.00000000E+00 0.00000000E+00 0.00000000E+00 3.36206726E-05-1.34482691E-04
 1 23-1.34482691E-04 0.00000000E+00 0.00000000E+00 0.00000000E+00-9.53384205E-03
 1 24 8.34189621E-03 0.00000000E+00 0.00000000E+00 0.00000000E+00 0.00000000E+00
 1 25 0.00000000E+00 0.00000000E+00-6.37632750E-04-6.37632753E-04 1.27526550E-03
 1 26 0.00000000E+00 0.00000000E+00 0.00000000E+00 3.12936798E-04 3.12936801E-04
 1 27-6.25873600E-04 0.00000000E+00 0.00000000E+00 0.00000000E+00 0.00000000E+00
 1 28 0.00000000E+00 0.00000000E+00 0.00000000E+00 0.00000000E+00 0.00000000E+00
 1 29 0.00000000E+00 0.00000000E+00 0.00000000E+00 0.00000000E+00 7.81218769E-05
 1 30 7.81218769E-05 2.08325005E-04 0.00000000E+00 0.00000000E+00 0.00000000E+00
 1 31 0.00000000E+00 0.00000000E+00 0.00000000E+00 4.57434872E-05-1.82973949E-04
 1 32-1.82973949E-04 0.00000000E+00 0.00000000E+00 0.00000000E+00
 2  1 0.00000000E+00 0.00000000E+00 0.00000000E+00 0.00000000E+00 0.00000000E+00
 2  2 0.00000000E+00 1.00043876E+00 0.00000000E+00 0.00000000E+00 2.77598700E-02
 2  3 0.00000000E+00 0.00000000E+00 2.15872309E-02 0.00000000E+00 0.00000000E+00
 2  4-4.19248298E-04 0.00000000E+00 0.00000000E+00-1.68596794E-03 0.00000000E+00
 2  5 0.00000000E+00-8.42411010E-03 0.00000000E+00 0.00000000E+00 0.00000000E+00
 2  6 0.00000000E+00 0.00000000E+00 0.00000000E+00 0.00000000E+00 0.00000000E+00
 2  7 0.00000000E+00 0.00000000E+00 0.00000000E+00 0.00000000E+00 0.00000000E+00
 2  8 0.00000000E+00 0.00000000E+00 0.00000000E+00 0.00000000E+00 0.00000000E+00
 2  9 0.00000000E+00 0.00000000E+00 0.00000000E+00 0.00000000E+00 0.00000000E+00
 2 10 0.00000000E+00 0.00000000E+00 0.00000000E+00 0.00000000E+00 0.00000000E+00
 2 11 0.00000000E+00 0.00000000E+00 0.00000000E+00 0.00000000E+00 1.31441283E-03
 2 12 0.00000000E+00 0.00000000E+00 0.00000000E+00 0.00000000E+00 5.87823288E-04
 2 13 0.00000000E+00-2.35129315E-03 0.00000000E+00 0.00000000E+00 8.66071732E-04
 2 14 0.00000000E+00 0.00000000E+00 0.00000000E+00 0.00000000E+00 3.87319053E-04
 2 15 0.00000000E+00-1.54927621E-03 0.00000000E+00 0.00000000E+00 5.21630717E-04
 2 16 0.00000000E+00 0.00000000E+00 0.00000000E+00 0.00000000E+00 2.33280348E-04
 2 17 0.00000000E+00-9.33121393E-04 0.00000000E+00 0.00000000E+00 0.00000000E+00
 2 18 0.00000000E+00 0.00000000E+00 0.00000000E+00 0.00000000E+00 0.00000000E+00
 2 19 0.00000000E+00 0.00000000E+00 0.00000000E+00 0.00000000E+00 0.00000000E+00
 2 20 0.00000000E+00 0.00000000E+00 0.00000000E+00 0.00000000E+00 0.00000000E+00
 2 21 0.00000000E+00 0.00000000E+00 0.00000000E+00 0.00000000E+00 0.00000000E+00
 2 22 0.00000000E+00 0.00000000E+00 0.00000000E+00 0.00000000E+00 0.00000000E+00
 2 23 0.00000000E+00 0.00000000E+00 0.00000000E+00 0.00000000E+00 0.00000000E+00
 2 24 0.00000000E+00 1.28090623E-04 0.00000000E+00 0.00000000E+00 1.04721505E-05
 2 25 0.00000000E+00 0.00000000E+00 0.00000000E+00 0.00000000E+00 0.00000000E+00
 2 26 0.00000000E+00 0.00000000E+00 0.00000000E+00 0.00000000E+00 0.00000000E+00
 2 27 0.00000000E+00 0.00000000E+00 0.00000000E+00 0.00000000E+00-2.78015207E-04
 2 28 0.00000000E+00 0.00000000E+00 0.00000000E+00 0.00000000E+00-1.24332180E-04
 2 29 0.00000000E+00 4.97328721E-04 0.00000000E+00 0.00000000E+00 0.00000000E+00
 2 30 0.00000000E+00 0.00000000E+00 0.00000000E+00 0.00000000E+00 0.00000000E+00
 2 31 0.00000000E+00 0.00000000E+00 0.00000000E+00 0.00000000E+00 0.00000000E+00
 2 32 0.00000000E+00 0.00000000E+00 0.00000000E+00 0.00000000E+00
 3  1 0.00000000E+00 0.00000000E+00 0.00000000E+00 0.00000000E+00 0.00000000E+00
 3  2 0.00000000E+00 0.00000000E+00 1.00043876E+00 0.00000000E+00 0.00000000E+00
 3  3 2.77598700E-02 0.00000000E+00 0.00000000E+00 2.15872309E-02 0.00000000E+00
 3  4 0.00000000E+00-4.19248298E-04 0.00000000E+00 0.00000000E+00-1.68596794E-03
 3  5 0.00000000E+00 0.00000000E+00-8.42411010E-03 0.00000000E+00 0.00000000E+00
 3  6 0.00000000E+00 0.00000000E+00 0.00000000E+00 0.00000000E+00 0.00000000E+00
 3  7 0.00000000E+00 0.00000000E+00 0.00000000E+00 0.00000000E+00 0.00000000E+00
 3  8 0.00000000E+00 0.00000000E+00 0.00000000E+00 0.00000000E+00 0.00000000E+00
 3  9 0.00000000E+00 0.00000000E+00 0.00000000E+00 0.00000000E+00 0.00000000E+00
 3 10 0.00000000E+00 0.00000000E+00 0.00000000E+00 0.00000000E+00 0.00000000E+00
 3 11 0.00000000E+00 0.00000000E+00 0.00000000E+00 0.00000000E+00 0.00000000E+00
 3 12 1.31441283E-03 0.00000000E+00 5.87823288E-04 0.00000000E+00 0.00000000E+00
 3 13 0.00000000E+00 0.00000000E+00-2.35129315E-03 0.00000000E+00 0.00000000E+00
 3 14 8.66071732E-04 0.00000000E+00 3.87319053E-04 0.00000000E+00 0.00000000E+00
 3 15 0.00000000E+00 0.00000000E+00-1.54927621E-03 0.00000000E+00 0.00000000E+00
 3 16 5.21630717E-04 0.00000000E+00 2.33280348E-04 0.00000000E+00 0.00000000E+00
 3 17 0.00000000E+00 0.00000000E+00-9.33121393E-04 0.00000000E+00 0.00000000E+00
 3 18 0.00000000E+00 0.00000000E+00 0.00000000E+00 0.00000000E+00 0.00000000E+00
 3 19 0.00000000E+00 0.00000000E+00 0.00000000E+00 0.00000000E+00 0.00000000E+00
 3 20 0.00000000E+00 0.00000000E+00 0.00000000E+00 0.00000000E+00 0.00000000E+00
 3 21 0.00000000E+00 0.00000000E+00 0.00000000E+00 0.00000000E+00 0.00000000E+00
 3 22 0.00000000E+00 0.00000000E+00 0.00000000E+00 0.00000000E+00 0.00000000E+00
 3 23 0.00000000E+00 0.00000000E+00 0.00000000E+00 0.00000000E+00 0.00000000E+00
 3 24 0.00000000E+00 0.00000000E+00 1.28090623E-04 0.00000000E+00 0.00000000E+00
 3 25 1.04721505E-05 0.00000000E+00 0.00000000E+00 0.00000000E+00 0.00000000E+00
 3 26 0.00000000E+00 0.00000000E+00 0.00000000E+00 0.00000000E+00 0.00000000E+00
 3 27 0.00000000E+00 0.00000000E+00 0.00000000E+00 0.00000000E+00 0.00000000E+00
 3 28-2.78015207E-04 0.00000000E+00-1.24332180E-04 0.00000000E+00 0.00000000E+00
 3 29 0.00000000E+00 0.00000000E+00 4.97328721E-04 0.00000000E+00 0.00000000E+00
 3 30 0.00000000E+00 0.00000000E+00 0.00000000E+00 0.00000000E+00 0.00000000E+00
 3 31 0.00000000E+00 0.00000000E+00 0.00000000E+00 0.00000000E+00 0.00000000E+00
 3 32 0.00000000E+00 0.00000000E+00 0.00000000E+00 0.00000000E+00
 4  1 0.00000000E+00 0.00000000E+00 0.00000000E+00 0.00000000E+00 0.00000000E+00
 4  2 0.00000000E+00 0.00000000E+00 0.00000000E+00 9.99581746E-01 0.00000000E+00
 4  3 0.00000000E+00 2.46344484E-02 0.00000000E+00 0.00000000E+00 2.02166077E-02
 4  4 0.00000000E+00 0.00000000E+00-1.03047686E-03 0.00000000E+00 0.00000000E+00
 4  5-1.45961614E-03 0.00000000E+00 0.00000000E+00-7.55527560E-03 0.00000000E+00
 4  6 0.00000000E+00 0.00000000E+00 0.00000000E+00 0.00000000E+00 0.00000000E+00
 4  7 0.00000000E+00 0.00000000E+00 0.00000000E+00 0.00000000E+00 0.00000000E+00
 4  8 0.00000000E+00 0.00000000E+00 0.00000000E+00 0.00000000E+00 0.00000000E+00
 4  9 0.00000000E+00 0.00000000E+00 0.00000000E+00 0.00000000E+00 0.00000000E+00
 4 10 0.00000000E+00 0.00000000E+00 0.00000000E+00 0.00000000E+00 0.00000000E+00
 4 11 0.00000000E+00 0.00000000E+00 0.00000000E+00 0.00000000E+00 0.00000000E+00
 4 12 0.00000000E+00 4.16302790E-03 0.00000000E+00-2.79264402E-03 0.00000000E+00
 4 13-2.79264402E-03 0.00000000E+00 0.00000000E+00 0.00000000E+00 0.00000000E+00
 4 14 0.00000000E+00 6.78633261E-03 0.00000000E+00-4.55241031E-03 0.00000000E+00
 4 15-4.55241031E-03 0.00000000E+00 0.00000000E+00 0.00000000E+00 0.00000000E+00
 4 16 0.00000000E+00 2.53898709E-03 0.00000000E+00-1.70320432E-03 0.00000000E+00
 4 17-1.70320432E-03 0.00000000E+00 0.00000000E+00 0.00000000E+00 0.00000000E+00
 4 18 0.00000000E+00 0.00000000E+00 0.00000000E+00 0.00000000E+00 0.00000000E+00
 4 19 0.00000000E+00 0.00000000E+00 0.00000000E+00 0.00000000E+00 0.00000000E+00
 4 20 0.00000000E+00 0.00000000E+00 0.00000000E+00 0.00000000E+00 0.00000000E+00
 4 21 0.00000000E+00 0.00000000E+00 0.00000000E+00 0.00000000E+00 0.00000000E+00
 4 22 0.00000000E+00 0.00000000E+00 0.00000000E+00 0.00000000E+00 0.00000000E+00
 4 23 0.00000000E+00 0.00000000E+00 0.00000000E+00 0.00000000E+00 0.00000000E+00
 4 24 0.00000000E+00 0.00000000E+00 0.00000000E+00 1.12995881E-03 0.00000000E+00
 4 25 0.00000000E+00-2.82738889E-04 0.00000000E+00 0.00000000E+00 0.00000000E+00
 4 26 0.00000000E+00 0.00000000E+00 0.00000000E+00 0.00000000E+00 0.00000000E+00
 4 27 0.00000000E+00 0.00000000E+00 0.00000000E+00 0.00000000E+00 0.00000000E+00
 4 28 0.00000000E+00 5.30371419E-04 0.00000000E+00-3.55783964E-04 0.00000000E+00
 4 29-3.55783964E-04 0.00000000E+00 0.00000000E+00 0.00000000E+00 0.00000000E+00
 4 30 0.00000000E+00 0.00000000E+00 0.00000000E+00 0.00000000E+00 0.00000000E+00
 4 31 0.00000000E+00 0.00000000E+00 0.00000000E+00 0.00000000E+00 0.00000000E+00
 4 32 0.00000000E+00 0.00000000E+00 0.00000000E+00 0.00000000E+00
 5  1 8.19616951E-03-1.91817349E-03 1.21714457E-03-2.02829567E-04 5.97578174E-05
 5  2-1.26643404E-04 0.00000000E+00 0.00000000E+00 0.00000000E+00 0.00000000E+00
 5  3 0.00000000E+00 0.00000000E+00 0.00000000E+00 0.00000000E+00 0.00000000E+00
 5  4 0.00000000E+00 0.00000000E+00 0.00000000E+00 0.00000000E+00 0.00000000E+00
 5  5 0.00000000E+00 0.00000000E+00 0.00000000E+00 0.00000000E+00-5.01338204E-01
 5  6-5.01338204E-01 1.00267641E+00 0.00000000E+00 0.00000000E+00 0.00000000E+00
 5  7-5.41787342E-03-5.41787342E-03 1.08357468E-02 0.00000000E+00 0.00000000E+00
 5  8 0.00000000E+00-1.01172343E-03-1.01172343E-03 2.02344686E-03 0.00000000E+00
 5  9 0.00000000E+00 0.00000000E+00 9.69026182E-05 9.69026182E-05-1.93805236E-04
 5 10 0.00000000E+00 0.00000000E+00 0.00000000E+00 5.85456919E-03 5.85456919E-03
 5 11-1.17091384E-02 0.00000000E+00 0.00000000E+00 0.00000000E+00 0.00000000E+00
 5 12 0.00000000E+00 0.00000000E+00 0.00000000E+00 0.00000000E+00 0.00000000E+00
 5 13 0.00000000E+00 0.00000000E+00 0.00000000E+00 0.00000000E+00 0.00000000E+00
 5 14 0.00000000E+00 0.00000000E+00 0.00000000E+00 0.00000000E+00 0.00000000E+00
 5 15 0.00000000E+00 0.00000000E+00 0.00000000E+00 0.00000000E+00 0.00000000E+00
 5 16 0.00000000E+00 0.00000000E+00 0.00000000E+00 0.00000000E+00 0.00000000E+00
 5 17 0.00000000E+00 0.00000000E+00 0.00000000E+00 0.00000000E+00 1.15733679E-03
 5 18 1.15733679E-03 3.08623145E-03 0.00000000E+00 0.00000000E+00 0.00000000E+00
 5 19 0.00000000E+00 0.00000000E+00 0.00000000E+00 6.77667037E-04-2.71066815E-03
 5 20-2.71066815E-03 0.00000000E+00 0.00000000E+00 0.00000000E+00 3.48479831E-04
 5 21 3.48479831E-04 9.29279548E-04 0.00000000E+00 0.00000000E+00 0.00000000E+00
 5 22 0.00000000E+00 0.00000000E+00 0.00000000E+00 2.04048895E-04-8.16195581E-04
 5 23-8.16195581E-04 0.00000000E+00 0.00000000E+00 0.00000000E+00-5.37646556E-04
 5 24 4.76761778E-04 0.00000000E+00 0.00000000E+00 0.00000000E+00 0.00000000E+00
 5 25 0.00000000E+00 0.00000000E+00-5.91986465E-05-5.91986465E-05 1.18397293E-04
 5 26 0.00000000E+00 0.00000000E+00 0.00000000E+00-2.13180724E-05-2.13180724E-05
 5 27 4.26361449E-05 0.00000000E+00 0.00000000E+00 0.00000000E+00 0.00000000E+00
 5 28 0.00000000E+00 0.00000000E+00 0.00000000E+00 0.00000000E+00 0.00000000E+00
 5 29 0.00000000E+00 0.00000000E+00 0.00000000E+00 0.00000000E+00 7.93268823E-05
 5 30 7.93268823E-05 2.11538353E-04 0.00000000E+00 0.00000000E+00 0.00000000E+00
 5 31 0.00000000E+00 0.00000000E+00 0.00000000E+00 4.64490661E-05-1.85796264E-04
 5 32-1.85796264E-04 0.00000000E+00 0.00000000E+00 0.00000000E+00
 6  1 0.00000000E+00 0.00000000E+00 0.00000000E+00 0.00000000E+00 0.00000000E+00
 6  2 0.00000000E+00 0.00000000E+00 0.00000000E+00 0.00000000E+00 0.00000000E+00
 6  3 0.00000000E+00 0.00000000E+00 0.00000000E+00 0.00000000E+00 0.00000000E+00
 6  4 0.00000000E+00 0.00000000E+00 0.00000000E+00 0.00000000E+00 0.00000000E+00
 6  5 0.00000000E+00 0.00000000E+00 0.00000000E+00 0.00000000E+00 0.00000000E+00
 6  6 0.00000000E+00 0.00000000E+00 1.00140179E+00 0.00000000E+00 0.00000000E+00
 6  7 0.00000000E+00 0.00000000E+00 0.00000000E+00 3.10450190E-02 0.00000000E+00
 6  8 0.00000000E+00 0.00000000E+00 0.00000000E+00 0.00000000E+00 9.71481803E-03
 6  9 0.00000000E+00 0.00000000E+00 0.00000000E+00 0.00000000E+00 0.00000000E+00
 6 10 5.58573337E-04 0.00000000E+00 0.00000000E+00 0.00000000E+00 0.00000000E+00
 6 11 0.00000000E+00-7.90041471E-03 0.00000000E+00 0.00000000E+00 0.00000000E+00
 6 12 0.00000000E+00 0.00000000E+00 0.00000000E+00 0.00000000E+00 0.00000000E+00
 6 13 0.00000000E+00 0.00000000E+00 0.00000000E+00 0.00000000E+00 0.00000000E+00
 6 14 0.00000000E+00 0.00000000E+00 0.00000000E+00 0.00000000E+00 0.00000000E+00
 6 15 0.00000000E+00 0.00000000E+00 0.00000000E+00 0.00000000E+00 0.00000000E+00
 6 16 0.00000000E+00 0.00000000E+00 0.00000000E+00 0.00000000E+00 0.00000000E+00
 6 17 0.00000000E+00 0.00000000E+00 0.00000000E+00 0.00000000E+00 0.00000000E+00
 6 18 0.00000000E+00 0.00000000E+00-4.64201260E-04 0.00000000E+00-4.64201260E-04
 6 19 0.00000000E+00 0.00000000E+00 0.00000000E+00 0.00000000E+00 0.00000000E+00
 6 20 0.00000000E+00 0.00000000E+00 0.00000000E+00 1.24558269E-03 0.00000000E+00
 6 21 0.00000000E+00 0.00000000E+00-1.82784957E-04 0.00000000E+00-1.82784957E-04
 6 22 0.00000000E+00 0.00000000E+00 0.00000000E+00 0.00000000E+00 0.00000000E+00
 6 23 0.00000000E+00 0.00000000E+00 0.00000000E+00 4.90463508E-04 0.00000000E+00
 6 24 0.00000000E+00 0.00000000E+00 0.00000000E+00 0.00000000E+00 0.00000000E+00
 6 25 0.00000000E+00 0.00000000E+00 0.00000000E+00 0.00000000E+00 0.00000000E+00
 6 26-3.95061677E-04 0.00000000E+00 0.00000000E+00 0.00000000E+00 0.00000000E+00
 6 27 0.00000000E+00 1.04604814E-04 0.00000000E+00 0.00000000E+00 0.00000000E+00
 6 28 0.00000000E+00 0.00000000E+00 0.00000000E+00 0.00000000E+00 0.00000000E+00
 6 29 0.00000000E+00 0.00000000E+00 0.00000000E+00 0.00000000E+00 0.00000000E+00
 6 30 0.00000000E+00 0.00000000E+00-7.36537624E-06 0.00000000E+00-7.36537624E-06
 6 31 0.00000000E+00 0.00000000E+00 0.00000000E+00 0.00000000E+00 0.00000000E+00
 6 32 0.00000000E+00 0.00000000E+00 0.00000000E+00 1.97633784E-05
 7  1 0.00000000E+00 0.00000000E+00 0.00000000E+00 0.00000000E+00 0.00000000E+00
 7  2 0.00000000E+00 0.00000000E+00 0.00000000E+00 0.00000000E+00 0.00000000E+00
 7  3 0.00000000E+00 0.00000000E+00 0.00000000E+00 0.00000000E+00 0.00000000E+00
 7  4 0.00000000E+00 0.00000000E+00 0.00000000E+00 0.00000000E+00 0.00000000E+00
 7  5 0.00000000E+00 0.00000000E+00 0.00000000E+00 0.00000000E+00-8.67239394E-01
 7  6 8.67239394E-01 0.00000000E+00 0.00000000E+00 0.00000000E+00 0.00000000E+00
 7  7-2.68857752E-02 2.68857752E-02 0.00000000E+00 0.00000000E+00 0.00000000E+00
 7  8 0.00000000E+00-8.41327921E-03 8.41327921E-03 0.00000000E+00 0.00000000E+00
 7  9 0.00000000E+00 0.00000000E+00-4.83738700E-04 4.83738700E-04 0.00000000E+00
 7 10 0.00000000E+00 0.00000000E+00 0.00000000E+00 6.84195984E-03-6.84195984E-03
 7 11 0.00000000E+00 0.00000000E+00 0.00000000E+00 0.00000000E+00 0.00000000E+00
 7 12 0.00000000E+00 0.00000000E+00 0.00000000E+00 0.00000000E+00 0.00000000E+00
 7 13 0.00000000E+00 0.00000000E+00 0.00000000E+00 0.00000000E+00 0.00000000E+00
 7 14 0.00000000E+00 0.00000000E+00 0.00000000E+00 0.00000000E+00 0.00000000E+00
 7 15 0.00000000E+00 0.00000000E+00 0.00000000E+00 0.00000000E+00 0.00000000E+00
 7 16 0.00000000E+00 0.00000000E+00 0.00000000E+00 0.00000000E+00 0.00000000E+00
 7 17 0.00000000E+00 0.00000000E+00 0.00000000E+00 0.00000000E+00 6.14080546E-04
 7 18-6.14080546E-04 0.00000000E+00 0.00000000E+00 0.00000000E+00 0.00000000E+00
 7 19 0.00000000E+00 0.00000000E+00 0.00000000E+00 0.00000000E+00-1.07870625E-03
 7 20 1.07870625E-03 0.00000000E+00 0.00000000E+00 0.00000000E+00 2.41801770E-04
 7 21-2.41801770E-04 0.00000000E+00 0.00000000E+00 0.00000000E+00 0.00000000E+00
 7 22 0.00000000E+00 0.00000000E+00 0.00000000E+00 0.00000000E+00-4.24753857E-04
 7 23 4.24753857E-04 0.00000000E+00 0.00000000E+00 0.00000000E+00 0.00000000E+00
 7 24 0.00000000E+00 0.00000000E+00 0.00000000E+00 0.00000000E+00 0.00000000E+00
 7 25 0.00000000E+00 0.00000000E+00 3.42133449E-04-3.42133449E-04 0.00000000E+00
 7 26 0.00000000E+00 0.00000000E+00 0.00000000E+00-9.05904269E-05 9.05904269E-05
 7 27 0.00000000E+00 0.00000000E+00 0.00000000E+00 0.00000000E+00 0.00000000E+00
 7 28 0.00000000E+00 0.00000000E+00 0.00000000E+00 0.00000000E+00 0.00000000E+00
 7 29 0.00000000E+00 0.00000000E+00 0.00000000E+00 0.00000000E+00 9.74347694E-06
 7 30-9.74347694E-06 0.00000000E+00 0.00000000E+00 0.00000000E+00 0.00000000E+00
 7 31 0.00000000E+00 0.00000000E+00 0.00000000E+00 0.00000000E+00-1.71155877E-05
 7 32 1.71155877E-05 0.00000000E+00 0.00000000E+00 0.00000000E+00
 8  1-1.29220177E-02 9.57320353E-01-7.62197987E-02 1.42987476E-02 1.50184184E-03
 8  2 4.52933270E-02 0.00000000E+00 0.00000000E+00 0.00000000E+00 0.00000000E+00
 8  3 0.00000000E+00 0.00000000E+00 0.00000000E+00 0.00000000E+00 0.00000000E+00
 8  4 0.00000000E+00 0.00000000E+00 0.00000000E+00 0.00000000E+00 0.00000000E+00
 8  5 0.00000000E+00 0.00000000E+00 0.00000000E+00 0.00000000E+00-5.36571130E-04
 8  6-5.36571130E-04 1.07314226E-03 0.00000000E+00 0.00000000E+00 0.00000000E+00
 8  7-6.75068962E-03-6.75068962E-03 1.35013792E-02 0.00000000E+00 0.00000000E+00
 8  8 0.00000000E+00-2.02668387E-03-2.02668387E-03 4.05336774E-03 0.00000000E+00
 8  9 0.00000000E+00 0.00000000E+00-5.69979388E-05-5.69979391E-05 1.13995878E-04
 8 10 0.00000000E+00 0.00000000E+00 0.00000000E+00-1.92555041E-03-1.92555041E-03
 8 11 3.85110082E-03 0.00000000E+00 0.00000000E+00 0.00000000E+00 0.00000000E+00
 8 12 0.00000000E+00 0.00000000E+00 0.00000000E+00 0.00000000E+00 0.00000000E+00
 8 13 0.00000000E+00 0.00000000E+00 0.00000000E+00 0.00000000E+00 0.00000000E+00
 8 14 0.00000000E+00 0.00000000E+00 0.00000000E+00 0.00000000E+00 0.00000000E+00
 8 15 0.00000000E+00 0.00000000E+00 0.00000000E+00 0.00000000E+00 0.00000000E+00
 8 16 0.00000000E+00 0.00000000E+00 0.00000000E+00 0.00000000E+00 0.00000000E+00
 8 17 0.00000000E+00 0.00000000E+00 0.00000000E+00 0.00000000E+00-3.49349824E-04
 8 18-3.49349824E-04-9.31599530E-04 0.00000000E+00 0.00000000E+00 0.00000000E+00
 8 19 0.00000000E+00 0.00000000E+00 0.00000000E+00-2.04558311E-04 8.18233244E-04
 8 20 8.18233244E-04 0.00000000E+00 0.00000000E+00 0.00000000E+00 1.61664061E-04
 8 21 1.61664061E-04 4.31104162E-04 0.00000000E+00 0.00000000E+00 0.00000000E+00
 8 22 0.00000000E+00 0.00000000E+00 0.00000000E+00 9.46607812E-05-3.78643125E-04
 8 23-3.78643125E-04 0.00000000E+00 0.00000000E+00 0.00000000E+00 7.93966115E-04
 8 24-2.04181864E-03 0.00000000E+00 0.00000000E+00 0.00000000E+00 0.00000000E+00
 8 25 0.00000000E+00 0.00000000E+00 1.27661426E-04 1.27661427E-04-2.55322854E-04
 8 26 0.00000000E+00 0.00000000E+00 0.00000000E+00-3.06277516E-05-3.06277525E-05
 8 27 6.12555041E-05 0.00000000E+00 0.00000000E+00 0.00000000E+00 0.00000000E+00
 8 28 0.00000000E+00 0.00000000E+00 0.00000000E+00 0.00000000E+00 0.00000000E+00
 8 29 0.00000000E+00 0.00000000E+00 0.00000000E+00 0.00000000E+00-2.86356501E-05
 8 30-2.86356501E-05-7.63617337E-05 0.00000000E+00 0.00000000E+00 0.00000000E+00
 8 31 0.00000000E+00 0.00000000E+00 0.00000000E+00-1.67673198E-05 6.70692794E-05
 8 32 6.70692794E-05 0.00000000E+00 0.00000000E+00 0.00000000E+00
 9  1 0.00000000E+00 0.00000000E+00 0.00000000E+00 0.00000000E+00 0.00000000E+00
 9  2 0.00000000E+00 0.00000000E+00 0.00000000E+00 0.00000000E+00 0.00000000E+00
 9  3 0.00000000E+00 0.00000000E+00 0.00000000E+00 0.00000000E+00 0.00000000E+00
 9  4 0.00000000E+00 0.00000000E+00 0.00000000E+00 0.00000000E+00 0.00000000E+00
 9  5 0.00000000E+00 0.00000000E+00 0.00000000E+00 0.00000000E+00 0.00000000E+00
 9  6 0.00000000E+00 0.00000000E+00 0.00000000E+00 1.00269964E+00 0.00000000E+00
 9  7 0.00000000E+00 0.00000000E+00 0.00000000E+00 0.00000000E+00-7.00479865E-03
 9  8 0.00000000E+00 0.00000000E+00 0.00000000E+00 0.00000000E+00 0.00000000E+00
 9  9-3.16385447E-03 0.00000000E+00 0.00000000E+00 0.00000000E+00 0.00000000E+00
 9 10 0.00000000E+00 2.76804411E-04 0.00000000E+00 0.00000000E+00 0.00000000E+00
 9 11 0.00000000E+00 0.00000000E+00-1.31542997E-02 0.00000000E+00 0.00000000E+00
 9 12 0.00000000E+00 0.00000000E+00 0.00000000E+00 0.00000000E+00 0.00000000E+00
 9 13 0.00000000E+00 0.00000000E+00 0.00000000E+00 0.00000000E+00 0.00000000E+00
 9 14 0.00000000E+00 0.00000000E+00 0.00000000E+00 0.00000000E+00 0.00000000E+00
 9 15 0.00000000E+00 0.00000000E+00 0.00000000E+00 0.00000000E+00 0.00000000E+00
 9 16 0.00000000E+00 0.00000000E+00 0.00000000E+00 0.00000000E+00 0.00000000E+00
 9 17 0.00000000E+00 0.00000000E+00 0.00000000E+00 0.00000000E+00 0.00000000E+00
 9 18 0.00000000E+00 0.00000000E+00 0.00000000E+00-2.58700566E-03 0.00000000E+00
 9 19 0.00000000E+00 3.44934088E-03 0.00000000E+00 0.00000000E+00 0.00000000E+00
 9 20 0.00000000E+00 0.00000000E+00-1.15694410E-03 0.00000000E+00 0.00000000E+00
 9 21 0.00000000E+00 0.00000000E+00 0.00000000E+00-8.89159369E-04 0.00000000E+00
 9 22 0.00000000E+00 1.18554583E-03 0.00000000E+00 0.00000000E+00 0.00000000E+00
 9 23 0.00000000E+00 0.00000000E+00-3.97644159E-04 0.00000000E+00 0.00000000E+00
 9 24 0.00000000E+00 0.00000000E+00 0.00000000E+00 0.00000000E+00 0.00000000E+00
 9 25 0.00000000E+00 0.00000000E+00 0.00000000E+00 0.00000000E+00 0.00000000E+00
 9 26 0.00000000E+00 8.09963667E-04 0.00000000E+00 0.00000000E+00 0.00000000E+00
 9 27 0.00000000E+00 0.00000000E+00 3.48311960E-05 0.00000000E+00 0.00000000E+00
 9 28 0.00000000E+00 0.00000000E+00 0.00000000E+00 0.00000000E+00 0.00000000E+00
 9 29 0.00000000E+00 0.00000000E+00 0.00000000E+00 0.00000000E+00 0.00000000E+00
 9 30 0.00000000E+00 0.00000000E+00 0.00000000E+00-1.40818172E-04 0.00000000E+00
 9 31 0.00000000E+00 1.87757562E-04 0.00000000E+00 0.00000000E+00 0.00000000E+00