 $CONTRL 
     SCFTYP=ROHF 
     MULT=1
     ICHARG=0 
     RUNTYP=ENERGY
     MAXIT=150
     ECP=READ
     ISPHER=1
 $END

 $SYSTEM 
     KDIAG=3
 $END

 $GUESS
    GUESS=HUCKEL
 $END


 $DATA  

Dnh, 2

Ca 20    0. 0. 0.
S  13
  1      38.909972  0.00094450
  2      20.573489  -0.01770900
  3      10.878148  0.14349340
  4       5.751777  -0.28035140
  5       3.041228  -0.28847700
  6       1.608037  0.17248640
  7       0.850243  0.55290080
  8       0.449563  0.46769880
  9       0.237704  0.09929150
 10       0.125685  0.00665130
 11       0.066456  -0.00192570
 12       0.035138  0.00096120
 13       0.018579  -0.00024390
S  13
  1      38.909972  -0.00018310
  2      20.573489  0.00425520
  3      10.878148  -0.03727720
  4       5.751777  0.07704740
  5       3.041228  0.07822310
  6       1.608037  -0.05175260
  7       0.850243  -0.17462310
  8       0.449563  -0.25326320
  9       0.237704  -0.16061050
 10       0.125685  0.12654760
 11       0.066456  0.46487670
 12       0.035138  0.47840060
 13       0.018579  0.15642960
P  12
  1      31.519451  -0.00013110
  2      15.831494  0.00581110
  3       7.951795  -0.04461000
  4       3.994003  -0.04239180
  5       2.006096  0.18028850
  6       1.007616  0.40747440
  7       0.506102  0.38646720
  8       0.254203  0.15452190
  9       0.127681  0.01706770
 10       0.064131  0.00315970
 11       0.032211  -0.00022470
 12       0.016179  0.00016830
P  12
  1      31.519451  0.00002060
  2      15.831494  -0.00124550
  3       7.951795  0.01011140
  4       3.994003  0.00894270
  5       2.006096  -0.04458680
  6       1.007616  -0.09627520
  7       0.506102  -0.11300730
  8       0.254203  -0.06533320
  9       0.127681  0.14680910
 10       0.064131  0.44119800
 11       0.032211  0.42763180
 12       0.016179  0.12519670
D  11
  1      28.997930  0.00227830
  2      13.712713  0.01197270
  3       6.484549  0.02273230
  4       3.066452  0.06997740
  5       1.450082  0.12588700
  6       0.685723  0.17597110
  7       0.324269  0.20962750
  8       0.153342  0.25661550
  9       0.072513  0.28874140
 10       0.034291  0.22477940
 11       0.016216  0.08294810
S  1
  1       0.090426  1.00000000
S  1
  1       0.042935  1.00000000
S  1
  1       0.019981  1.00000000
P  1
  1       0.125510  1.00000000
P  1
  1       0.053549  1.00000000
P  1
  1       0.022081  1.00000000
D  1
  1       0.127163  1.00000000
D  1
  1       0.038262  1.00000000
F  1
  1       0.136800  1.00000000
S  1
  1       0.561250  1.00000000
S  1
  1       0.957624  1.00000000
S  1
  1       1.633930  1.00000000
P  1
  1       0.471583  1.00000000
P  1
  1       1.045363  1.00000000
P  1
  1       2.317268  1.00000000
D  1
  1       0.475378  1.00000000
D  1
  1       1.277696  1.00000000
F  1
  1       1.454974  1.00000000

 $END

 $ECP
Ca-ccECP GEN 10 2
4
 10.000              1  7.04133174529182 
 70.41331745291820   3  14.01444871170631
-92.87298019372959   2  13.76936244330539
-5.75356823885455    2  4.71725966981399 
2
 149.30262323616307  2  11.24016734279034
 23.75932943609596   2  5.35361160046973 
2
 99.20411436357747   2  13.06654848325639
 13.45216129084917   2  4.02748497149017 
 $END


