 $CONTRL 
     SCFTYP=ROHF 
     MULT=3
     ICHARG=0 
     RUNTYP=ENERGY
     MAXIT=150
     ECP=READ
     ISPHER=1
 $END

 $SYSTEM 
     KDIAG=3
 $END

 $GUESS
    GUESS=HUCKEL
 $END


 $DATA  

C1
Si 14    0. 0. 0.
S  10
  1  9.998274  0.002894
  2  5.517644 -0.014523
  3  3.044965  0.077634
  4  1.680393 -0.224022
  5  0.927341 -0.149080
  6  0.511762  0.085944
  7  0.282421  0.355394
  8  0.155857  0.445219
  9  0.086011  0.267230
 10  0.047466  0.060787
S   1                     
  1  0.700625  1.000000
S   1                     
  1  0.318864  1.000000
S   1                     
  1  0.145120  1.000000
S   1                     
  1  0.066046  1.000000
P  10                     
  1  5.027868 -0.003242 
  2  2.867751  0.010649
  3  1.635683 -0.049761
  4  0.932947 -0.000017
  5  0.532126  0.106060
  6  0.303509  0.236202
  7  0.173113  0.310665
  8  0.098739  0.294696
  9  0.056318  0.153898
 10  0.032122  0.042337
P   1                     
  1  1.336968  1.000000
P   1                     
  1  0.652035  1.000000
P   1                     
  1  0.317995  1.000000
P   1                     
  1  0.155085  1.000000
D   1                     
  1  2.145983  1.000000
D   1                     
  1  0.828929  1.000000
D   1                     
  1  0.320190  1.000000
D   1                     
  1  0.123680  1.000000
F   1                     
  1  0.756775  1.000000
F   1                     
  1  0.357607  1.000000
F   1                     
  1  0.168984  1.000000
G   1                     
  1  0.702896  1.000000
G   1                     
  1  0.316879  1.000000

 $END

 $ECP
Si-ccECP GEN 10 2
3
4.000000 1 5.168316
20.673264 3 8.861690
-14.818174 2 3.933474
2
14.832760 2 9.447023
26.349664 2 2.553812
2
7.621400 2 3.660001
10.331583 2 1.903653
 $END


